<?xml version="1.0"?>

<VTKFile type="UnstructuredGrid" >
  <UnstructuredGrid>
    <Piece NumberOfPoints="431"  NumberOfCells="800" >
      <Cells><DataArray Name="connectivity" type="Int32" format="ascii" >
 231 0 21 231 21 22 231 22 1 231 1 0 232 1 22 232 22 23 232 23 2 232 2 1 233 2 23 233 23 24 233 24 3 233 3 2 234 3 24 234 24 25 234 25 4 234 4 3 235 4 25 235 25 26 235 26 5 235 5 4 236 5 26 236 26 27 236 27 6 236 6 5 237 6 27 237 27 28 237 28 7 237 7 6 238 7 28 238 28 29 238 29 8 238 8 7 239 8 29 239 29 30 239 30 9 239 9 8 240 9 30 240 30 31 240 31 10 240 10 9 241 10 31 241 31 32 241 32 11 241 11 10 242 11 32 242 32 33 242 33 12 242 12 11 243 12 33 243 33 34 243 34 13 243 13 12 244 13 34 244 34 35 244 35 14 244 14 13 245 14 35 245 35 36 245 36 15 245 15 14 246 15 36 246 36 37 246 37 16 246 16 15 247 16 37 247 37 38 247 38 17 247 17 16 248 17 38 248 38 39 248 39 18 248 18 17 249 18 39 249 39 40 249 40 19 249 19 18 250 19 40 250 40 41 250 41 20 250 20 19 251 21 42 251 42 43 251 43 22 251 22 21 252 22 43 252 43 44 252 44 23 252 23 22 253 23 44 253 44 45 253 45 24 253 24 23 254 24 45 254 45 46 254 46 25 254 25 24 255 25 46 255 46 47 255 47 26 255 26 25 256 26 47 256 47 48 256 48 27 256 27 26 257 27 48 257 48 49 257 49 28 257 28 27 258 28 49 258 49 50 258 50 29 258 29 28 259 29 50 259 50 51 259 51 30 259 30 29 260 30 51 260 51 52 260 52 31 260 31 30 261 31 52 261 52 53 261 53 32 261 32 31 262 32 53 262 53 54 262 54 33 262 33 32 263 33 54 263 54 55 263 55 34 263 34 33 264 34 55 264 55 56 264 56 35 264 35 34 265 35 56 265 56 57 265 57 36 265 36 35 266 36 57 266 57 58 266 58 37 266 37 36 267 37 58 267 58 59 267 59 38 267 38 37 268 38 59 268 59 60 268 60 39 268 39 38 269 39 60 269 60 61 269 61 40 269 40 39 270 40 61 270 61 62 270 62 41 270 41 40 271 42 63 271 63 64 271 64 43 271 43 42 272 43 64 272 64 65 272 65 44 272 44 43 273 44 65 273 65 66 273 66 45 273 45 44 274 45 66 274 66 67 274 67 46 274 46 45 275 46 67 275 67 68 275 68 47 275 47 46 276 47 68 276 68 69 276 69 48 276 48 47 277 48 69 277 69 70 277 70 49 277 49 48 278 49 70 278 70 71 278 71 50 278 50 49 279 50 71 279 71 72 279 72 51 279 51 50 280 51 72 280 72 73 280 73 52 280 52 51 281 52 73 281 73 74 281 74 53 281 53 52 282 53 74 282 74 75 282 75 54 282 54 53 283 54 75 283 75 76 283 76 55 283 55 54 284 55 76 284 76 77 284 77 56 284 56 55 285 56 77 285 77 78 285 78 57 285 57 56 286 57 78 286 78 79 286 79 58 286 58 57 287 58 79 287 79 80 287 80 59 287 59 58 288 59 80 288 80 81 288 81 60 288 60 59 289 60 81 289 81 82 289 82 61 289 61 60 290 61 82 290 82 83 290 83 62 290 62 61 291 63 84 291 84 85 291 85 64 291 64 63 292 64 85 292 85 86 292 86 65 292 65 64 293 65 86 293 86 87 293 87 66 293 66 65 294 66 87 294 87 88 294 88 67 294 67 66 295 67 88 295 88 89 295 89 68 295 68 67 296 68 89 296 89 90 296 90 69 296 69 68 297 69 90 297 90 91 297 91 70 297 70 69 298 70 91 298 91 92 298 92 71 298 71 70 299 71 92 299 92 93 299 93 72 299 72 71 300 72 93 300 93 94 300 94 73 300 73 72 301 73 94 301 94 95 301 95 74 301 74 73 302 74 95 302 95 96 302 96 75 302 75 74 303 75 96 303 96 97 303 97 76 303 76 75 304 76 97 304 97 98 304 98 77 304 77 76 305 77 98 305 98 99 305 99 78 305 78 77 306 78 99 306 99 100 306 100 79 306 79 78 307 79 100 307 100 101 307 101 80 307 80 79 308 80 101 308 101 102 308 102 81 308 81 80 309 81 102 309 102 103 309 103 82 309 82 81 310 82 103 310 103 104 310 104 83 310 83 82 311 84 105 311 105 106 311 106 85 311 85 84 312 85 106 312 106 107 312 107 86 312 86 85 313 86 107 313 107 108 313 108 87 313 87 86 314 87 108 314 108 109 314 109 88 314 88 87 315 88 109 315 109 110 315 110 89 315 89 88 316 89 110 316 110 111 316 111 90 316 90 89 317 90 111 317 111 112 317 112 91 317 91 90 318 91 112 318 112 113 318 113 92 318 92 91 319 92 113 319 113 114 319 114 93 319 93 92 320 93 114 320 114 115 320 115 94 320 94 93 321 94 115 321 115 116 321 116 95 321 95 94 322 95 116 322 116 117 322 117 96 322 96 95 323 96 117 323 117 118 323 118 97 323 97 96 324 97 118 324 118 119 324 119 98 324 98 97 325 98 119 325 119 120 325 120 99 325 99 98 326 99 120 326 120 121 326 121 100 326 100 99 327 100 121 327 121 122 327 122 101 327 101 100 328 101 122 328 122 123 328 123 102 328 102 101 329 102 123 329 123 124 329 124 103 329 103 102 330 103 124 330 124 125 330 125 104 330 104 103 331 105 126 331 126 127 331 127 106 331 106 105 332 106 127 332 127 128 332 128 107 332 107 106 333 107 128 333 128 129 333 129 108 333 108 107 334 108 129 334 129 130 334 130 109 334 109 108 335 109 130 335 130 131 335 131 110 335 110 109 336 110 131 336 131 132 336 132 111 336 111 110 337 111 132 337 132 133 337 133 112 337 112 111 338 112 133 338 133 134 338 134 113 338 113 112 339 113 134 339 134 135 339 135 114 339 114 113 340 114 135 340 135 136 340 136 115 340 115 114 341 115 136 341 136 137 341 137 116 341 116 115 342 116 137 342 137 138 342 138 117 342 117 116 343 117 138 343 138 139 343 139 118 343 118 117 344 118 139 344 139 140 344 140 119 344 119 118 345 119 140 345 140 141 345 141 120 345 120 119 346 120 141 346 141 142 346 142 121 346 121 120 347 121 142 347 142 143 347 143 122 347 122 121 348 122 143 348 143 144 348 144 123 348 123 122 349 123 144 349 144 145 349 145 124 349 124 123 350 124 145 350 145 146 350 146 125 350 125 124 351 126 147 351 147 148 351 148 127 351 127 126 352 127 148 352 148 149 352 149 128 352 128 127 353 128 149 353 149 150 353 150 129 353 129 128 354 129 150 354 150 151 354 151 130 354 130 129 355 130 151 355 151 152 355 152 131 355 131 130 356 131 152 356 152 153 356 153 132 356 132 131 357 132 153 357 153 154 357 154 133 357 133 132 358 133 154 358 154 155 358 155 134 358 134 133 359 134 155 359 155 156 359 156 135 359 135 134 360 135 156 360 156 157 360 157 136 360 136 135 361 136 157 361 157 158 361 158 137 361 137 136 362 137 158 362 158 159 362 159 138 362 138 137 363 138 159 363 159 160 363 160 139 363 139 138 364 139 160 364 160 161 364 161 140 364 140 139 365 140 161 365 161 162 365 162 141 365 141 140 366 141 162 366 162 163 366 163 142 366 142 141 367 142 163 367 163 164 367 164 143 367 143 142 368 143 164 368 164 165 368 165 144 368 144 143 369 144 165 369 165 166 369 166 145 369 145 144 370 145 166 370 166 167 370 167 146 370 146 145 371 147 168 371 168 169 371 169 148 371 148 147 372 148 169 372 169 170 372 170 149 372 149 148 373 149 170 373 170 171 373 171 150 373 150 149 374 150 171 374 171 172 374 172 151 374 151 150 375 151 172 375 172 173 375 173 152 375 152 151 376 152 173 376 173 174 376 174 153 376 153 152 377 153 174 377 174 175 377 175 154 377 154 153 378 154 175 378 175 176 378 176 155 378 155 154 379 155 176 379 176 177 379 177 156 379 156 155 380 156 177 380 177 178 380 178 157 380 157 156 381 157 178 381 178 179 381 179 158 381 158 157 382 158 179 382 179 180 382 180 159 382 159 158 383 159 180 383 180 181 383 181 160 383 160 159 384 160 181 384 181 182 384 182 161 384 161 160 385 161 182 385 182 183 385 183 162 385 162 161 386 162 183 386 183 184 386 184 163 386 163 162 387 163 184 387 184 185 387 185 164 387 164 163 388 164 185 388 185 186 388 186 165 388 165 164 389 165 186 389 186 187 389 187 166 389 166 165 390 166 187 390 187 188 390 188 167 390 167 166 391 168 189 391 189 190 391 190 169 391 169 168 392 169 190 392 190 191 392 191 170 392 170 169 393 170 191 393 191 192 393 192 171 393 171 170 394 171 192 394 192 193 394 193 172 394 172 171 395 172 193 395 193 194 395 194 173 395 173 172 396 173 194 396 194 195 396 195 174 396 174 173 397 174 195 397 195 196 397 196 175 397 175 174 398 175 196 398 196 197 398 197 176 398 176 175 399 176 197 399 197 198 399 198 177 399 177 176 400 177 198 400 198 199 400 199 178 400 178 177 401 178 199 401 199 200 401 200 179 401 179 178 402 179 200 402 200 201 402 201 180 402 180 179 403 180 201 403 201 202 403 202 181 403 181 180 404 181 202 404 202 203 404 203 182 404 182 181 405 182 203 405 203 204 405 204 183 405 183 182 406 183 204 406 204 205 406 205 184 406 184 183 407 184 205 407 205 206 407 206 185 407 185 184 408 185 206 408 206 207 408 207 186 408 186 185 409 186 207 409 207 208 409 208 187 409 187 186 410 187 208 410 208 209 410 209 188 410 188 187 411 189 210 411 210 211 411 211 190 411 190 189 412 190 211 412 211 212 412 212 191 412 191 190 413 191 212 413 212 213 413 213 192 413 192 191 414 192 213 414 213 214 414 214 193 414 193 192 415 193 214 415 214 215 415 215 194 415 194 193 416 194 215 416 215 216 416 216 195 416 195 194 417 195 216 417 216 217 417 217 196 417 196 195 418 196 217 418 217 218 418 218 197 418 197 196 419 197 218 419 218 219 419 219 198 419 198 197 420 198 219 420 219 220 420 220 199 420 199 198 421 199 220 421 220 221 421 221 200 421 200 199 422 200 221 422 221 222 422 222 201 422 201 200 423 201 222 423 222 223 423 223 202 423 202 201 424 202 223 424 223 224 424 224 203 424 203 202 425 203 224 425 224 225 425 225 204 425 204 203 426 204 225 426 225 226 426 226 205 426 205 204 427 205 226 427 226 227 427 227 206 427 206 205 428 206 227 428 227 228 428 228 207 428 207 206 429 207 228 429 228 229 429 229 208 429 208 207 430 208 229 430 229 230 430 230 209 430 209 208
</DataArray>
<DataArray Name="offsets" type="Int32" format="ascii" >
 3 6 9 12 15 18 21 24 27 30 33 36 39 42 45 48 51 54 57 60 63 66 69 72 75 78 81 84 87 90 93 96 99 102 105 108 111 114 117 120 123 126 129 132 135 138 141 144 147 150 153 156 159 162 165 168 171 174 177 180 183 186 189 192 195 198 201 204 207 210 213 216 219 222 225 228 231 234 237 240 243 246 249 252 255 258 261 264 267 270 273 276 279 282 285 288 291 294 297 300 303 306 309 312 315 318 321 324 327 330 333 336 339 342 345 348 351 354 357 360 363 366 369 372 375 378 381 384 387 390 393 396 399 402 405 408 411 414 417 420 423 426 429 432 435 438 441 444 447 450 453 456 459 462 465 468 471 474 477 480 483 486 489 492 495 498 501 504 507 510 513 516 519 522 525 528 531 534 537 540 543 546 549 552 555 558 561 564 567 570 573 576 579 582 585 588 591 594 597 600 603 606 609 612 615 618 621 624 627 630 633 636 639 642 645 648 651 654 657 660 663 666 669 672 675 678 681 684 687 690 693 696 699 702 705 708 711 714 717 720 723 726 729 732 735 738 741 744 747 750 753 756 759 762 765 768 771 774 777 780 783 786 789 792 795 798 801 804 807 810 813 816 819 822 825 828 831 834 837 840 843 846 849 852 855 858 861 864 867 870 873 876 879 882 885 888 891 894 897 900 903 906 909 912 915 918 921 924 927 930 933 936 939 942 945 948 951 954 957 960 963 966 969 972 975 978 981 984 987 990 993 996 999 1002 1005 1008 1011 1014 1017 1020 1023 1026 1029 1032 1035 1038 1041 1044 1047 1050 1053 1056 1059 1062 1065 1068 1071 1074 1077 1080 1083 1086 1089 1092 1095 1098 1101 1104 1107 1110 1113 1116 1119 1122 1125 1128 1131 1134 1137 1140 1143 1146 1149 1152 1155 1158 1161 1164 1167 1170 1173 1176 1179 1182 1185 1188 1191 1194 1197 1200 1203 1206 1209 1212 1215 1218 1221 1224 1227 1230 1233 1236 1239 1242 1245 1248 1251 1254 1257 1260 1263 1266 1269 1272 1275 1278 1281 1284 1287 1290 1293 1296 1299 1302 1305 1308 1311 1314 1317 1320 1323 1326 1329 1332 1335 1338 1341 1344 1347 1350 1353 1356 1359 1362 1365 1368 1371 1374 1377 1380 1383 1386 1389 1392 1395 1398 1401 1404 1407 1410 1413 1416 1419 1422 1425 1428 1431 1434 1437 1440 1443 1446 1449 1452 1455 1458 1461 1464 1467 1470 1473 1476 1479 1482 1485 1488 1491 1494 1497 1500 1503 1506 1509 1512 1515 1518 1521 1524 1527 1530 1533 1536 1539 1542 1545 1548 1551 1554 1557 1560 1563 1566 1569 1572 1575 1578 1581 1584 1587 1590 1593 1596 1599 1602 1605 1608 1611 1614 1617 1620 1623 1626 1629 1632 1635 1638 1641 1644 1647 1650 1653 1656 1659 1662 1665 1668 1671 1674 1677 1680 1683 1686 1689 1692 1695 1698 1701 1704 1707 1710 1713 1716 1719 1722 1725 1728 1731 1734 1737 1740 1743 1746 1749 1752 1755 1758 1761 1764 1767 1770 1773 1776 1779 1782 1785 1788 1791 1794 1797 1800 1803 1806 1809 1812 1815 1818 1821 1824 1827 1830 1833 1836 1839 1842 1845 1848 1851 1854 1857 1860 1863 1866 1869 1872 1875 1878 1881 1884 1887 1890 1893 1896 1899 1902 1905 1908 1911 1914 1917 1920 1923 1926 1929 1932 1935 1938 1941 1944 1947 1950 1953 1956 1959 1962 1965 1968 1971 1974 1977 1980 1983 1986 1989 1992 1995 1998 2001 2004 2007 2010 2013 2016 2019 2022 2025 2028 2031 2034 2037 2040 2043 2046 2049 2052 2055 2058 2061 2064 2067 2070 2073 2076 2079 2082 2085 2088 2091 2094 2097 2100 2103 2106 2109 2112 2115 2118 2121 2124 2127 2130 2133 2136 2139 2142 2145 2148 2151 2154 2157 2160 2163 2166 2169 2172 2175 2178 2181 2184 2187 2190 2193 2196 2199 2202 2205 2208 2211 2214 2217 2220 2223 2226 2229 2232 2235 2238 2241 2244 2247 2250 2253 2256 2259 2262 2265 2268 2271 2274 2277 2280 2283 2286 2289 2292 2295 2298 2301 2304 2307 2310 2313 2316 2319 2322 2325 2328 2331 2334 2337 2340 2343 2346 2349 2352 2355 2358 2361 2364 2367 2370 2373 2376 2379 2382 2385 2388 2391 2394 2397 2400
</DataArray>
<DataArray Name="types" type="Int32" format="ascii" >
 5 5 5 5 5 5 5 5 5 5 5 5 5 5 5 5 5 5 5 5 5 5 5 5 5 5 5 5 5 5 5 5 5 5 5 5 5 5 5 5 5 5 5 5 5 5 5 5 5 5 5 5 5 5 5 5 5 5 5 5 5 5 5 5 5 5 5 5 5 5 5 5 5 5 5 5 5 5 5 5 5 5 5 5 5 5 5 5 5 5 5 5 5 5 5 5 5 5 5 5 5 5 5 5 5 5 5 5 5 5 5 5 5 5 5 5 5 5 5 5 5 5 5 5 5 5 5 5 5 5 5 5 5 5 5 5 5 5 5 5 5 5 5 5 5 5 5 5 5 5 5 5 5 5 5 5 5 5 5 5 5 5 5 5 5 5 5 5 5 5 5 5 5 5 5 5 5 5 5 5 5 5 5 5 5 5 5 5 5 5 5 5 5 5 5 5 5 5 5 5 5 5 5 5 5 5 5 5 5 5 5 5 5 5 5 5 5 5 5 5 5 5 5 5 5 5 5 5 5 5 5 5 5 5 5 5 5 5 5 5 5 5 5 5 5 5 5 5 5 5 5 5 5 5 5 5 5 5 5 5 5 5 5 5 5 5 5 5 5 5 5 5 5 5 5 5 5 5 5 5 5 5 5 5 5 5 5 5 5 5 5 5 5 5 5 5 5 5 5 5 5 5 5 5 5 5 5 5 5 5 5 5 5 5 5 5 5 5 5 5 5 5 5 5 5 5 5 5 5 5 5 5 5 5 5 5 5 5 5 5 5 5 5 5 5 5 5 5 5 5 5 5 5 5 5 5 5 5 5 5 5 5 5 5 5 5 5 5 5 5 5 5 5 5 5 5 5 5 5 5 5 5 5 5 5 5 5 5 5 5 5 5 5 5 5 5 5 5 5 5 5 5 5 5 5 5 5 5 5 5 5 5 5 5 5 5 5 5 5 5 5 5 5 5 5 5 5 5 5 5 5 5 5 5 5 5 5 5 5 5 5 5 5 5 5 5 5 5 5 5 5 5 5 5 5 5 5 5 5 5 5 5 5 5 5 5 5 5 5 5 5 5 5 5 5 5 5 5 5 5 5 5 5 5 5 5 5 5 5 5 5 5 5 5 5 5 5 5 5 5 5 5 5 5 5 5 5 5 5 5 5 5 5 5 5 5 5 5 5 5 5 5 5 5 5 5 5 5 5 5 5 5 5 5 5 5 5 5 5 5 5 5 5 5 5 5 5 5 5 5 5 5 5 5 5 5 5 5 5 5 5 5 5 5 5 5 5 5 5 5 5 5 5 5 5 5 5 5 5 5 5 5 5 5 5 5 5 5 5 5 5 5 5 5 5 5 5 5 5 5 5 5 5 5 5 5 5 5 5 5 5 5 5 5 5 5 5 5 5 5 5 5 5 5 5 5 5 5 5 5 5 5 5 5 5 5 5 5 5 5 5 5 5 5 5 5 5 5 5 5 5 5 5 5 5 5 5 5 5 5 5 5 5 5 5 5 5 5 5 5 5 5 5 5 5 5 5 5 5 5 5 5 5 5 5 5 5 5 5 5 5 5 5 5 5 5 5 5 5 5 5 5 5 5 5 5 5 5 5 5 5 5 5 5 5 5 5 5 5 5 5 5 5 5 5 5 5 5 5 5 5 5 5 5 5 5 5 5 5 5 5 5 5 5 5 5 5 5 5 5 5 5 5 5 5 5 5 5 5 5 5 5 5 5 5 5 5 5 5 5 5 5 5 5 5 5 5 5 5 5 5 5 5 5 5 5 5 5 5 5 5 5 5 5 5 5 5 5 5 5
</DataArray>

      </Cells>
      <Points><DataArray NumberOfComponents="3" type="Float32" format="ascii" >
 0 0 0 0 0.05 0 0 0.1 0 0 0.15 0 0 0.2 0 0 0.25 0 0 0.3 0 0 0.35 0 0 0.4 0 0 0.45 0 0 0.5 0 0 0.55 0 0 0.6 0 0 0.65 0 0 0.7 0 0 0.75 0 0 0.8 0 0 0.85 0 0 0.9 0 0 0.95 0 0 1 0 0.1 0 0 0.1 0.05 0 0.1 0.1 0 0.1 0.15 0 0.1 0.2 0 0.1 0.25 0 0.1 0.3 0 0.1 0.35 0 0.1 0.4 0 0.1 0.45 0 0.1 0.5 0 0.1 0.55 0 0.1 0.6 0 0.1 0.65 0 0.1 0.7 0 0.1 0.75 0 0.1 0.8 0 0.1 0.85 0 0.1 0.9 0 0.1 0.95 0 0.1 1 0 0.2 0 0 0.2 0.05 0 0.2 0.1 0 0.2 0.15 0 0.2 0.2 0 0.2 0.25 0 0.2 0.3 0 0.2 0.35 0 0.2 0.4 0 0.2 0.45 0 0.2 0.5 0 0.2 0.55 0 0.2 0.6 0 0.2 0.65 0 0.2 0.7 0 0.2 0.75 0 0.2 0.8 0 0.2 0.85 0 0.2 0.9 0 0.2 0.95 0 0.2 1 0 0.3 0 0 0.3 0.05 0 0.3 0.1 0 0.3 0.15 0 0.3 0.2 0 0.3 0.25 0 0.3 0.3 0 0.3 0.35 0 0.3 0.4 0 0.3 0.45 0 0.3 0.5 0 0.3 0.55 0 0.3 0.6 0 0.3 0.65 0 0.3 0.7 0 0.3 0.75 0 0.3 0.8 0 0.3 0.85 0 0.3 0.9 0 0.3 0.95 0 0.3 1 0 0.4 0 0 0.4 0.05 0 0.4 0.1 0 0.4 0.15 0 0.4 0.2 0 0.4 0.25 0 0.4 0.3 0 0.4 0.35 0 0.4 0.4 0 0.4 0.45 0 0.4 0.5 0 0.4 0.55 0 0.4 0.6 0 0.4 0.65 0 0.4 0.7 0 0.4 0.75 0 0.4 0.8 0 0.4 0.85 0 0.4 0.9 0 0.4 0.95 0 0.4 1 0 0.5 0 0 0.5 0.05 0 0.5 0.1 0 0.5 0.15 0 0.5 0.2 0 0.5 0.25 0 0.5 0.3 0 0.5 0.35 0 0.5 0.4 0 0.5 0.45 0 0.5 0.5 0 0.5 0.55 0 0.5 0.6 0 0.5 0.65 0 0.5 0.7 0 0.5 0.75 0 0.5 0.8 0 0.5 0.85 0 0.5 0.9 0 0.5 0.95 0 0.5 1 0 0.6 0 0 0.6 0.05 0 0.6 0.1 0 0.6 0.15 0 0.6 0.2 0 0.6 0.25 0 0.6 0.3 0 0.6 0.35 0 0.6 0.4 0 0.6 0.45 0 0.6 0.5 0 0.6 0.55 0 0.6 0.6 0 0.6 0.65 0 0.6 0.7 0 0.6 0.75 0 0.6 0.8 0 0.6 0.85 0 0.6 0.9 0 0.6 0.95 0 0.6 1 0 0.7 0 0 0.7 0.05 0 0.7 0.1 0 0.7 0.15 0 0.7 0.2 0 0.7 0.25 0 0.7 0.3 0 0.7 0.35 0 0.7 0.4 0 0.7 0.45 0 0.7 0.5 0 0.7 0.55 0 0.7 0.6 0 0.7 0.65 0 0.7 0.7 0 0.7 0.75 0 0.7 0.8 0 0.7 0.85 0 0.7 0.9 0 0.7 0.95 0 0.7 1 0 0.8 0 0 0.8 0.05 0 0.8 0.1 0 0.8 0.15 0 0.8 0.2 0 0.8 0.25 0 0.8 0.3 0 0.8 0.35 0 0.8 0.4 0 0.8 0.45 0 0.8 0.5 0 0.8 0.55 0 0.8 0.6 0 0.8 0.65 0 0.8 0.7 0 0.8 0.75 0 0.8 0.8 0 0.8 0.85 0 0.8 0.9 0 0.8 0.95 0 0.8 1 0 0.9 0 0 0.9 0.05 0 0.9 0.1 0 0.9 0.15 0 0.9 0.2 0 0.9 0.25 0 0.9 0.3 0 0.9 0.35 0 0.9 0.4 0 0.9 0.45 0 0.9 0.5 0 0.9 0.55 0 0.9 0.6 0 0.9 0.65 0 0.9 0.7 0 0.9 0.75 0 0.9 0.8 0 0.9 0.85 0 0.9 0.9 0 0.9 0.95 0 0.9 1 0 1 0 0 1 0.05 0 1 0.1 0 1 0.15 0 1 0.2 0 1 0.25 0 1 0.3 0 1 0.35 0 1 0.4 0 1 0.45 0 1 0.5 0 1 0.55 0 1 0.6 0 1 0.65 0 1 0.7 0 1 0.75 0 1 0.8 0 1 0.85 0 1 0.9 0 1 0.95 0 1 1 0 0.05 0.025 0 0.05 0.075 0 0.05 0.125 0 0.05 0.175 0 0.05 0.225 0 0.05 0.275 0 0.05 0.325 0 0.05 0.375 0 0.05 0.425 0 0.05 0.475 0 0.05 0.525 0 0.05 0.575 0 0.05 0.625 0 0.05 0.675 0 0.05 0.725 0 0.05 0.775 0 0.05 0.825 0 0.05 0.875 0 0.05 0.925 0 0.05 0.975 0 0.15 0.025 0 0.15 0.075 0 0.15 0.125 0 0.15 0.175 0 0.15 0.225 0 0.15 0.275 0 0.15 0.325 0 0.15 0.375 0 0.15 0.425 0 0.15 0.475 0 0.15 0.525 0 0.15 0.575 0 0.15 0.625 0 0.15 0.675 0 0.15 0.725 0 0.15 0.775 0 0.15 0.825 0 0.15 0.875 0 0.15 0.925 0 0.15 0.975 0 0.25 0.025 0 0.25 0.075 0 0.25 0.125 0 0.25 0.175 0 0.25 0.225 0 0.25 0.275 0 0.25 0.325 0 0.25 0.375 0 0.25 0.425 0 0.25 0.475 0 0.25 0.525 0 0.25 0.575 0 0.25 0.625 0 0.25 0.675 0 0.25 0.725 0 0.25 0.775 0 0.25 0.825 0 0.25 0.875 0 0.25 0.925 0 0.25 0.975 0 0.35 0.025 0 0.35 0.075 0 0.35 0.125 0 0.35 0.175 0 0.35 0.225 0 0.35 0.275 0 0.35 0.325 0 0.35 0.375 0 0.35 0.425 0 0.35 0.475 0 0.35 0.525 0 0.35 0.575 0 0.35 0.625 0 0.35 0.675 0 0.35 0.725 0 0.35 0.775 0 0.35 0.825 0 0.35 0.875 0 0.35 0.925 0 0.35 0.975 0 0.45 0.025 0 0.45 0.075 0 0.45 0.125 0 0.45 0.175 0 0.45 0.225 0 0.45 0.275 0 0.45 0.325 0 0.45 0.375 0 0.45 0.425 0 0.45 0.475 0 0.45 0.525 0 0.45 0.575 0 0.45 0.625 0 0.45 0.675 0 0.45 0.725 0 0.45 0.775 0 0.45 0.825 0 0.45 0.875 0 0.45 0.925 0 0.45 0.975 0 0.55 0.025 0 0.55 0.075 0 0.55 0.125 0 0.55 0.175 0 0.55 0.225 0 0.55 0.275 0 0.55 0.325 0 0.55 0.375 0 0.55 0.425 0 0.55 0.475 0 0.55 0.525 0 0.55 0.575 0 0.55 0.625 0 0.55 0.675 0 0.55 0.725 0 0.55 0.775 0 0.55 0.825 0 0.55 0.875 0 0.55 0.925 0 0.55 0.975 0 0.65 0.025 0 0.65 0.075 0 0.65 0.125 0 0.65 0.175 0 0.65 0.225 0 0.65 0.275 0 0.65 0.325 0 0.65 0.375 0 0.65 0.425 0 0.65 0.475 0 0.65 0.525 0 0.65 0.575 0 0.65 0.625 0 0.65 0.675 0 0.65 0.725 0 0.65 0.775 0 0.65 0.825 0 0.65 0.875 0 0.65 0.925 0 0.65 0.975 0 0.75 0.025 0 0.75 0.075 0 0.75 0.125 0 0.75 0.175 0 0.75 0.225 0 0.75 0.275 0 0.75 0.325 0 0.75 0.375 0 0.75 0.425 0 0.75 0.475 0 0.75 0.525 0 0.75 0.575 0 0.75 0.625 0 0.75 0.675 0 0.75 0.725 0 0.75 0.775 0 0.75 0.825 0 0.75 0.875 0 0.75 0.925 0 0.75 0.975 0 0.85 0.025 0 0.85 0.075 0 0.85 0.125 0 0.85 0.175 0 0.85 0.225 0 0.85 0.275 0 0.85 0.325 0 0.85 0.375 0 0.85 0.425 0 0.85 0.475 0 0.85 0.525 0 0.85 0.575 0 0.85 0.625 0 0.85 0.675 0 0.85 0.725 0 0.85 0.775 0 0.85 0.825 0 0.85 0.875 0 0.85 0.925 0 0.85 0.975 0 0.95 0.025 0 0.95 0.075 0 0.95 0.125 0 0.95 0.175 0 0.95 0.225 0 0.95 0.275 0 0.95 0.325 0 0.95 0.375 0 0.95 0.425 0 0.95 0.475 0 0.95 0.525 0 0.95 0.575 0 0.95 0.625 0 0.95 0.675 0 0.95 0.725 0 0.95 0.775 0 0.95 0.825 0 0.95 0.875 0 0.95 0.925 0 0.95 0.975 0
</DataArray>

      </Points>
      <PointData Vectors="UU"  Scalars="PP" ><DataArray Name="UU" NumberOfComponents="3" type="Float32" format="ascii" >
 1.28858 0 0 1.28858 0 0 1.28858 3.15987e-23 0 1.28858 4.78779e-23 0 1.28858 6.64064e-23 0 1.28858 -4.43623e-23 0 1.28858 1.18144e-22 0 1.28858 1.66447e-22 0 1.28858 2.85359e-22 0 1.28859 7.16815e-22 0 1.2886 2.99518e-21 0 1.27243 1.5877e-20 0 1.23194 3.76857e-20 0 1.16651 6.51428e-20 0 1.07601 9.51754e-20 0 0.960372 1.27314e-19 0 0.819577 1.6249e-19 0 0.653629 2.04231e-19 0 0.462543 2.63157e-19 0 0.246246 3.59537e-19 0 1.31491e-17 1.06355e-18 0 1.28858 8.90209e-24 0 1.28858 -1.22371e-07 0 1.28858 -2.48339e-07 0 1.28858 -3.81926e-07 0 1.28858 -5.288e-07 0 1.28858 -6.96401e-07 0 1.28858 -8.91897e-07 0 1.28858 -1.10499e-06 0 1.28859 -1.24044e-06 0 1.28859 -6.32407e-07 0 1.28859 2.5861e-07 0 1.2716 -1.55369e-05 0 1.23043 2.93597e-05 0 1.16444 6.77072e-05 0 1.07342 0.000106301 0 0.957281 0.000151306 0 0.815993 0.000213984 0 0.64953 0.0003079 0 0.457856 0.000424759 0 0.240871 0.000532566 0 -2.6814e-17 -2.65364e-18 0 1.28858 1.07741e-23 0 1.28858 -1.78352e-07 0 1.28858 -3.52488e-07 0 1.28858 -5.16358e-07 0 1.28858 -6.61224e-07 0 1.28858 -7.70792e-07 0 1.28858 -8.11478e-07 0 1.28858 -7.17208e-07 0 1.28858 -3.30362e-07 0 1.28859 5.19004e-07 0 1.28859 1.87349e-06 0 1.27173 6.08756e-05 0 1.23066 0.000149594 0 1.16473 0.000224929 0 1.07374 0.000272012 0 0.95761 0.000292107 0 0.816307 0.000287199 0 0.649824 0.000255426 0 0.45818 0.000195983 0 0.24154 5.89083e-05 0 0 0 0 1.28858 8.64796e-24 0 1.28858 -1.69925e-07 0 1.28858 -3.2359e-07 0 1.28858 -4.42568e-07 0 1.28858 -5.05211e-07 0 1.28858 -4.84368e-07 0 1.28858 -3.46953e-07 0 1.28858 -5.20489e-08 0 1.28858 4.53681e-07 0 1.28858 1.33527e-06 0 1.28859 2.59762e-06 0 1.27186 6.49546e-05 0 1.23088 0.000155249 0 1.16501 0.000223589 0 1.07406 0.000258228 0 0.957959 0.000259334 0 0.816677 0.000230462 0 0.650209 0.000177367 0 0.458587 0.000103675 0 0.241874 3.25949e-05 0 0 0 0 1.28858 6.1654e-24 0 1.28858 -1.43513e-07 0 1.28858 -2.63664e-07 0 1.28858 -3.358e-07 0 1.28858 -3.34147e-07 0 1.28858 -2.3251e-07 0 1.28858 -6.8176e-09 0 1.28858 3.61036e-07 0 1.28858 9.03611e-07 0 1.28858 1.79434e-06 0 1.28859 2.96122e-06 0 1.272 6.68565e-05 0 1.23111 0.000155973 0 1.16531 0.000219512 0 1.07441 0.000245556 0 0.958346 0.000235783 0 0.817084 0.000195801 0 0.650617 0.000134282 0 0.458957 6.68741e-05 0 0.242133 1.41578e-05 0 0 0 0 1.28858 5.76009e-24 0 1.28858 -1.36051e-07 0 1.28858 -2.4864e-07 0 1.28858 -3.13149e-07 0 1.28858 -3.03759e-07 0 1.28858 -1.93847e-07 0 1.28858 4.13997e-08 0 1.28858 4.23523e-07 0 1.28858 9.86314e-07 0 1.28858 1.93596e-06 0 1.28858 3.08067e-06 0 1.27213 6.70075e-05 0 1.23135 0.000155955 0 1.16562 0.000217646 0 1.07478 0.000240506 0 0.958749 0.000226641 0 0.817504 0.000182588 0 0.651026 0.000119346 0 0.45931 5.41876e-05 0 0.242353 9.27142e-06 0 -2.70342e-17 -2.64775e-18 0 1.28858 7.05357e-24 0 1.28858 -1.49376e-07 0 1.28858 -2.81346e-07 0 1.28858 -3.77072e-07 0 1.28858 -4.14863e-07 0 1.28858 -3.67838e-07 0 1.28858 -2.01474e-07 0 1.28858 1.26857e-07 0 1.28858 6.91562e-07 0 1.28858 1.75912e-06 0 1.28858 2.99627e-06 0 1.27227 6.6681e-05 0 1.23158 0.000156423 0 1.16593 0.00021934 0 1.07514 0.000243504 0 0.959155 0.000231084 0 0.817927 0.000188424 0 0.651436 0.00012556 0 0.45966 5.96358e-05 0 0.242569 1.10889e-05 0 -2.70608e-17 -2.64956e-18 0 1.28858 7.69063e-24 0 1.28858 -1.54797e-07 0 1.28858 -3.00612e-07 0 1.28858 -4.28232e-07 0 1.28858 -5.2728e-07 0 1.28858 -5.82323e-07 0 1.28858 -5.62787e-07 0 1.28858 -3.99216e-07 0 1.28858 4.21191e-08 0 1.28858 1.30046e-06 0 1.28858 2.89925e-06 0 1.2724 6.50806e-05 0 1.23181 0.000156763 0 1.16624 0.00022374 0 1.0755 0.000254593 0 0.959552 0.000250001 0 0.818342 0.000214964 0 0.651846 0.000157377 0 0.46002 8.56266e-05 0 0.242809 2.50738e-05 0 5.41828e-17 5.30119e-18 0 1.28858 5.85575e-24 0 1.28858 -1.22929e-07 0 1.28858 -2.40164e-07 0 1.28858 -3.47016e-07 0 1.28858 -4.4079e-07 0 1.28858 -5.23649e-07 0 1.28858 -6.04369e-07 0 1.28858 -6.85082e-07 0 1.28858 -6.07373e-07 0 1.28858 8.3947e-07 0 1.28857 3.92257e-06 0 1.27252 6.26468e-05 0 1.23203 0.00015497 0 1.16652 0.000233314 0 1.07583 0.000280415 0 0.959915 0.000297097 0 0.818729 0.000283802 0 0.652243 0.000240139 0 0.460415 0.000169119 0 0.243107 4.25582e-05 0 -2.71456e-17 -2.63898e-18 0 1.28858 2.4517e-24 0 1.28858 -6.07884e-08 0 1.28858 -1.14893e-07 0 1.28858 -1.5425e-07 0 1.28858 -1.68018e-07 0 1.28858 -1.41573e-07 0 1.28858 -6.06968e-08 0 1.28858 8.0078e-08 0 1.28858 2.71521e-07 0 1.28858 1.33107e-06 0 1.28855 -8.43681e-07 0 1.27259 -3.2286e-06 0 1.23218 0.000118891 0 1.16674 0.000235332 0 1.0761 0.000346319 0 0.960222 0.000441503 0 0.819071 0.000516915 0 0.652626 0.000569873 0 0.460876 0.000582296 0 0.243837 0.000510805 0 5.48905e-17 4.98511e-18 0 1.28858 3.37237e-24 0 1.28858 1.02618e-23 0 1.28858 -8.20146e-24 0 1.28858 -1.02335e-23 0 1.28858 -1.03106e-23 0 1.28858 -6.74931e-24 0 1.28858 -7.35508e-24 0 1.28858 -4.1453e-23 0 1.28858 8.67925e-23 0 1.28858 1.68944e-21 0 1.28848 -3.42148e-20 0 1.27159 -1.35132e-19 0 1.23049 4.9e-19 0 1.16448 -3.49107e-19 0 1.07335 8.99688e-19 0 0.957012 -5.48137e-19 0 0.815422 -6.44336e-19 0 0.648543 1.4743e-18 0 0.456339 -8.20605e-19 0 0.238845 1.77642e-18 0 0 0 0 1.28858 -3.31041e-08 0 1.28858 -9.73255e-08 0 1.28858 -1.64748e-07 0 1.28858 -2.3854e-07 0 1.28858 -3.23134e-07 0 1.28858 -4.24788e-07 0 1.28858 -5.53852e-07 0 1.28858 -7.2757e-07 0 1.28859 -9.62873e-07 0 1.28859 -7.14977e-07 0 1.28106 -2.90868e-05 0 1.25268 -6.56119e-05 0 1.19952 -9.9605e-05 0 1.12132 -0.000123777 0 1.01798 -0.000140132 0 0.889496 -0.00014359 0 0.735838 -0.000123537 0 0.557004 -5.44275e-05 0 0.352917 0.000104382 0 0.123224 0.000238178 0 1.28858 -7.83953e-08 0 1.28858 -2.32882e-07 0 1.28858 -3.87251e-07 0 1.28858 -5.41099e-07 0 1.28858 -6.92737e-07 0 1.28858 -8.35545e-07 0 1.28858 -9.46526e-07 0 1.28858 -9.50996e-07 0 1.28859 -5.98631e-07 0 1.28859 9.16732e-07 0 1.28119 4.17809e-05 0 1.25286 0.000103992 0 1.19963 0.000151607 0 1.12133 0.000188567 0 1.01789 0.000216256 0 0.889259 0.000238872 0 0.735438 0.00026069 0 0.556418 0.0002791 0 0.352253 0.000250604 0 0.123219 0.000134761 0 1.28858 -8.94554e-08 0 1.28858 -2.62832e-07 0 1.28858 -4.19809e-07 0 1.28858 -5.47074e-07 0 1.28858 -6.26089e-07 0 1.28858 -6.28978e-07 0 1.28858 -5.12081e-07 0 1.28858 -2.1103e-07 0 1.28858 4.31159e-07 0 1.28858 1.74185e-06 0 1.28127 6.62081e-05 0 1.253 0.000148149 0 1.19983 0.000215814 0 1.12156 0.000258226 0 1.01813 0.000273734 0 0.889503 0.00026271 0 0.73568 0.000227183 0 0.556676 0.00016702 0 0.352548 9.1134e-05 0 0.12345 -1.53191e-06 0 1.28858 -7.99837e-08 0 1.28858 -2.30278e-07 0 1.28858 -3.49547e-07 0 1.28858 -4.15197e-07 0 1.28858 -4.01709e-07 0 1.28858 -2.81156e-07 0 1.28858 -2.58972e-08 0 1.28858 3.92254e-07 0 1.28858 1.05009e-06 0 1.28858 2.27883e-06 0 1.28134 6.89798e-05 0 1.25318 0.000152733 0 1.20009 0.000216839 0 1.12187 0.000251187 0 1.01848 0.000253812 0 0.889881 0.000226618 0 0.736071 0.000174182 0 0.557063 0.000105478 0 0.352895 3.50559e-05 0 0.123613 -2.06246e-06 0 1.28858 -7.13238e-08 0 1.28858 -2.02445e-07 0 1.28858 -2.97395e-07 0 1.28858 -3.30872e-07 0 1.28858 -2.76428e-07 0 1.28858 -1.08442e-07 0 1.28858 1.9444e-07 0 1.28858 6.48969e-07 0 1.28858 1.32174e-06 0 1.28858 2.54765e-06 0 1.28141 6.94927e-05 0 1.25337 0.000153769 0 1.20036 0.000215991 0 1.12221 0.000245695 0 1.01886 0.000241599 0 0.890288 0.000206582 0 0.736485 0.000147518 0 0.557452 7.65586e-05 0 0.353201 1.63906e-05 0 0.123738 -5.37322e-06 0 1.28858 -7.29769e-08 0 1.28858 -2.08896e-07 0 1.28858 -3.13372e-07 0 1.28858 -3.6362e-07 0 1.28858 -3.3405e-07 0 1.28858 -1.96066e-07 0 1.28858 8.07928e-08 0 1.28858 5.28754e-07 0 1.28858 1.23423e-06 0 1.28858 2.57226e-06 0 1.28147 6.93948e-05 0 1.25356 0.000154139 0 1.20063 0.000216418 0 1.12255 0.000245477 0 1.01925 0.000240216 0 0.890704 0.0002038 0 0.736904 0.000143576 0 0.557837 7.25001e-05 0 0.353491 1.38425e-05 0 0.123852 -5.5787e-06 0 1.28858 -7.76241e-08 0 1.28858 -2.27141e-07 0 1.28858 -3.56823e-07 0 1.28858 -4.52048e-07 0 1.28858 -4.94383e-07 0 1.28858 -4.56715e-07 0 1.28858 -2.94433e-07 0 1.28858 6.63423e-08 0 1.28858 7.73449e-07 0 1.28858 2.40368e-06 0 1.28153 6.88698e-05 0 1.25374 0.000154217 0 1.20091 0.000218462 0 1.12289 0.000250899 0 1.01963 0.000249919 0 0.891116 0.000218222 0 0.737321 0.000161799 0 0.558224 9.17067e-05 0 0.353787 2.57143e-05 0 0.123971 -3.06218e-06 0 1.28858 -7.02338e-08 0 1.28858 -2.08993e-07 0 1.28858 -3.3746e-07 0 1.28858 -4.49757e-07 0 1.28858 -5.40934e-07 0 1.28858 -6.05524e-07 0 1.28858 -6.23324e-07 0 1.28858 -4.96903e-07 0 1.28858 1.23786e-07 0 1.28857 2.19557e-06 0 1.2816 6.68543e-05 0 1.25392 0.000153079 0 1.20116 0.000223117 0 1.12321 0.000264601 0 1.01999 0.000276497 0 0.891507 0.000259036 0 0.737722 0.000215013 0 0.55861 0.000148294 0 0.354116 7.17423e-05 0 0.124114 -3.85341e-06 0 1.28858 -4.54878e-08 0 1.28858 -1.36027e-07 0 1.28858 -2.16859e-07 0 1.28858 -2.81232e-07 0 1.28858 -3.22082e-07 0 1.28858 -3.36267e-07 0 1.28858 -3.39296e-07 0 1.28858 -3.90846e-07 0 1.28858 -5.44999e-07 0 1.28857 1.51571e-06 0 1.28167 4.58181e-05 0 1.25404 0.000140401 0 1.20134 0.000221697 0 1.12342 0.000294767 0 1.02023 0.000350645 0 0.891763 0.000385205 0 0.737993 0.000395027 0 0.558901 0.000372752 0 0.354421 0.000289322 0 0.12431 0.000118127 0 1.28858 -1.44182e-08 0 1.28858 -4.32853e-08 0 1.28858 -6.66004e-08 0 1.28858 -7.90457e-08 0 1.28858 -7.2596e-08 0 1.28858 -3.44787e-08 0 1.28858 5.30656e-08 0 1.28858 1.90349e-07 0 1.28858 -1.7639e-09 0 1.28855 3.66018e-06 0 1.28177 3.7812e-05 0 1.25411 9.40237e-05 0 1.20132 0.000167231 0 1.1233 0.000253944 0 1.02003 0.000337794 0 0.891482 0.00041459 0 0.737631 0.000484471 0 0.558464 0.000555737 0 0.354004 0.000640247 0 0.124473 0.000572507 0
</DataArray>
<DataArray Name="PP" type="Float32" format="ascii" >
 0 0 -2.3334e-17 -3.21484e-17 -4.10461e-17 2.50578e-17 -5.98626e-17 -7.5461e-17 -1.12569e-16 -1.14004e-16 5.0551e-17 6.02977e-17 6.77253e-17 7.34795e-17 7.85847e-17 8.32711e-17 8.75476e-17 9.11677e-17 9.18376e-17 7.43203e-17 7.43203e-17 -0.0113174 -0.0272692 -0.0544399 -0.0830389 -0.111219 -0.138364 -0.163849 -0.185791 -0.224399 -0.212941 -0.691792 -0.56148 -0.563259 -0.57516 -0.594936 -0.618486 -0.644632 -0.672109 -0.702751 -0.71301 -0.785093 -0.0116835 -0.0286863 -0.0579874 -0.088784 -0.119505 -0.149998 -0.180282 -0.213164 -0.245745 -0.319365 -0.809475 -0.717654 -0.687038 -0.686249 -0.69675 -0.713644 -0.733974 -0.75695 -0.779266 -0.81318 -0.795964 -0.0113726 -0.0284468 -0.0577935 -0.0888553 -0.119991 -0.150995 -0.18217 -0.213523 -0.253999 -0.322676 -0.822617 -0.727276 -0.695525 -0.692478 -0.702174 -0.718394 -0.73849 -0.76059 -0.784763 -0.803635 -0.799743 -0.0116122 -0.028733 -0.0581054 -0.0892195 -0.120428 -0.151546 -0.182599 -0.21475 -0.253972 -0.324086 -0.823567 -0.727122 -0.695029 -0.692064 -0.701605 -0.717742 -0.737518 -0.759391 -0.781313 -0.80053 -0.797429 -0.0124994 -0.0296354 -0.0590066 -0.0901354 -0.121365 -0.152465 -0.183517 -0.215294 -0.25424 -0.324041 -0.823472 -0.72639 -0.694673 -0.691766 -0.701364 -0.717456 -0.737184 -0.758699 -0.780447 -0.799306 -0.797284 -0.0140119 -0.0311419 -0.0605166 -0.0916753 -0.122939 -0.154059 -0.185066 -0.216579 -0.254811 -0.324375 -0.823617 -0.726848 -0.695086 -0.692298 -0.701909 -0.718071 -0.737828 -0.759596 -0.781386 -0.800654 -0.798111 -0.0160672 -0.0331764 -0.0626447 -0.0939595 -0.125405 -0.156703 -0.187827 -0.219757 -0.257461 -0.325034 -0.822689 -0.726086 -0.695366 -0.692703 -0.702644 -0.718976 -0.739086 -0.761154 -0.784854 -0.803503 -0.801013 -0.0180905 -0.0353217 -0.0650247 -0.0967108 -0.128784 -0.160957 -0.193111 -0.225443 -0.266803 -0.339077 -0.816745 -0.712674 -0.684263 -0.685655 -0.696996 -0.714333 -0.734864 -0.757734 -0.78061 -0.811518 -0.794943 -0.0187518 -0.0345973 -0.0623989 -0.0923917 -0.12323 -0.155286 -0.18962 -0.228979 -0.283119 -0.400344 -0.765725 -0.554326 -0.569789 -0.582456 -0.601004 -0.621948 -0.644642 -0.668041 -0.692847 -0.705313 -0.748244 -5.75719e-18 -1.23088e-17 1.03478e-17 1.46354e-17 1.88846e-17 2.30221e-17 -5.36208e-17 -5.84554e-17 -5.42862e-17 -1.34293e-16 3.76672e-17 5.12893e-17 -1.23781e-16 6.93178e-17 -1.51039e-16 8.10211e-17 8.60465e-17 -1.81147e-16 9.33424e-17 -1.64611e-16 0 0.0365814 0.0666003 0.105087 0.144784 0.184855 0.225701 0.269597 0.339846 0.506966 0.513429 0.455323 0.543113 0.610016 0.661844 0.707828 0.750039 0.788559 0.821165 0.8272 0.669417 0.0531052 0.102473 0.162979 0.225456 0.288987 0.354209 0.422806 0.499624 0.571419 0.925015 1.23466 1.21538 1.23861 1.27431 1.31717 1.36425 1.41393 1.46451 1.50796 1.56988 0.0572503 0.107606 0.169872 0.234253 0.299395 0.365075 0.431663 0.501262 0.605628 0.993271 1.36088 1.32238 1.32996 1.35999 1.40062 1.44745 1.49816 1.55063 1.607 1.64896 0.0579628 0.108248 0.170381 0.234541 0.299188 0.364097 0.429585 0.501691 0.607725 1.006 1.38482 1.3372 1.34214 1.37054 1.41065 1.45754 1.50879 1.56345 1.6189 1.6618 0.0569031 0.1071 0.169084 0.23308 0.297626 0.362563 0.428626 0.501225 0.608634 1.01211 1.39041 1.34064 1.34489 1.37301 1.41301 1.46001 1.51168 1.56667 1.62297 1.66579 0.0545221 0.104579 0.166383 0.230235 0.294777 0.36001 0.426632 0.500117 0.608887 1.01758 1.39039 1.34054 1.34465 1.37273 1.41274 1.4598 1.5116 1.56679 1.62331 1.66625 0.0512546 0.10105 0.162453 0.225775 0.289777 0.354733 0.421884 0.496698 0.607718 1.02487 1.38447 1.33654 1.34119 1.36952 1.40972 1.45685 1.50859 1.56391 1.6201 1.6636 0.0476542 0.0971918 0.158014 0.220276 0.28257 0.345139 0.410002 0.485979 0.601742 1.03605 1.35852 1.31792 1.32595 1.35672 1.39807 1.44586 1.49784 1.55245 1.61066 1.65361 0.0433106 0.0917672 0.150782 0.21078 0.270086 0.327778 0.383239 0.444917 0.575448 1.08196 1.22061 1.19082 1.22149 1.26174 1.30864 1.35962 1.41338 1.46856 1.52044 1.58413 0.0259281 0.055434 0.0932045 0.131824 0.170098 0.207364 0.241487 0.26326 0.244483 0.6048 0.339276 0.461973 0.557461 0.624359 0.680218 0.729773 0.775038 0.815814 0.840753 0.741344
</DataArray>

      </PointData>
      <CellData Scalars="SecInvGammadot"  Vectors="GAMMADOT" ><DataArray Name="SecInvGammadot" type="Float32" format="ascii" >
 2.67513e-06 3.8305e-06 2.59117e-06 1.37146e-06 2.6664e-06 4.28688e-06 2.86542e-06 1.70496e-06 3.12305e-06 5.14397e-06 3.47998e-06 2.38419e-06 3.93492e-06 6.5499e-06 4.50903e-06 3.36824e-06 5.19647e-06 8.73112e-06 6.12767e-06 4.74743e-06 7.11468e-06 1.21434e-05 8.85582e-06 6.74457e-06 1.02067e-05 1.8084e-05 1.49251e-05 9.77303e-06 1.6277e-05 3.14603e-05 3.56368e-05 1.4991e-05 3.25306e-05 7.6286e-05 0.000125037 2.9425e-05 0.00010462 0.000141766 0.00068877 7.83351e-05 0.1755 0.457186 0.276611 0.459949 0.545734 1.02518 0.709769 1.04578 0.971738 1.57452 1.16921 1.60912 1.42261 2.11512 1.63841 2.16033 1.88572 2.65103 2.11205 2.70515 2.35543 3.18414 2.58779 3.24583 2.82892 3.71567 3.06443 3.78326 3.30468 4.24768 3.54214 4.31718 3.78381 4.78729 4.02614 4.84806 4.26863 5.30283 4.45649 5.42311 6.2386e-06 6.74461e-06 6.29805e-06 5.79987e-06 6.10012e-06 7.3354e-06 6.73838e-06 6.34967e-06 6.45596e-06 8.49812e-06 7.75478e-06 7.4585e-06 7.4029e-06 1.05529e-05 9.66487e-06 9.35573e-06 9.23244e-06 1.39269e-05 1.29163e-05 1.23855e-05 1.23221e-05 1.91881e-05 1.81333e-05 1.70636e-05 1.72386e-05 2.71386e-05 2.60281e-05 2.41409e-05 2.47833e-05 3.95617e-05 3.77623e-05 3.38238e-05 3.95773e-05 6.9692e-05 8.21675e-05 4.33669e-05 8.5683e-05 0.000146063 0.00152716 0.000146347 0.16176 0.455389 0.315696 0.440285 0.51185 1.02704 0.766434 1.00698 0.935052 1.57854 1.23085 1.55765 1.38666 2.12134 1.70287 2.10018 1.85133 2.65946 2.17903 2.638 2.32298 3.19496 2.65786 3.17317 2.79877 3.72879 3.1386 3.70692 3.27741 4.26132 3.62035 4.24046 3.75648 4.78809 4.09776 4.7735 4.23447 5.31014 4.54968 5.28473 7.15364e-06 6.9519e-06 7.18632e-06 7.494e-06 6.81183e-06 7.34727e-06 7.28071e-06 8.02664e-06 6.65576e-06 8.20833e-06 7.8602e-06 9.08599e-06 7.09543e-06 1.0043e-05 9.39957e-06 1.09972e-05 8.72174e-06 1.32404e-05 1.22692e-05 1.4095e-05 1.19341e-05 1.78745e-05 1.64889e-05 1.86208e-05 1.67636e-05 2.38081e-05 2.14047e-05 2.45152e-05 2.30431e-05 3.23812e-05 2.37464e-05 3.08307e-05 3.23831e-05 5.69635e-05 8.77929e-05 4.19842e-05 7.30114e-05 0.000174462 0.00169174 0.00014639 0.157661 0.452742 0.321278 0.436346 0.508516 1.02572 0.771841 1.004 0.932368 1.57875 1.23707 1.55687 1.38439 2.1222 1.70959 2.10072 1.84928 2.66063 2.18608 2.63943 2.32088 3.19598 2.66478 3.17498 2.79626 3.72912 3.14453 3.70832 3.27347 4.25989 3.62393 4.23948 3.75127 4.78851 4.10107 4.76669 4.22584 5.31404 4.56464 5.28483 6.46725e-06 5.96085e-06 6.28188e-06 6.86459e-06 5.84592e-06 5.72151e-06 5.56512e-06 6.97313e-06 4.77685e-06 5.53483e-06 4.89606e-06 7.28743e-06 4.03248e-06 6.45372e-06 5.55336e-06 8.45279e-06 5.39385e-06 9.213e-06 8.4374e-06 1.10336e-05 9.09793e-06 1.35246e-05 1.28775e-05 1.5068e-05 1.4124e-05 1.89601e-05 1.71395e-05 2.00745e-05 1.9457e-05 2.672e-05 1.65451e-05 2.5346e-05 2.67875e-05 5.12682e-05 9.27224e-05 3.99089e-05 7.11542e-05 0.000194217 0.00173717 0.00015985 0.155285 0.449237 0.320052 0.432646 0.506637 1.02366 0.771149 1.00173 0.930882 1.57727 1.23665 1.55534 1.38324 2.12111 1.70941 2.09964 1.84838 2.65978 2.18606 2.63862 2.32017 3.19534 2.66491 3.17432 2.79567 3.72865 3.14482 3.70766 3.27319 4.26011 3.62485 4.2388 3.75128 4.78975 4.10414 4.76703 4.23005 5.31973 4.5721 5.29121 5.82804e-06 5.40586e-06 5.55431e-06 5.74732e-06 5.16522e-06 4.47668e-06 4.26526e-06 5.14686e-06 3.51885e-06 2.70328e-06 1.97984e-06 4.11241e-06 9.52755e-07 1.72044e-06 1.43203e-06 3.98834e-06 2.87172e-06 5.13416e-06 5.8337e-06 6.49372e-06 7.49338e-06 1.01169e-05 1.0978e-05 1.08838e-05 1.27976e-05 1.60617e-05 1.52935e-05 1.62134e-05 1.79479e-05 2.41355e-05 1.37524e-05 2.25234e-05 2.45866e-05 4.92656e-05 9.57441e-05 4.0577e-05 7.06934e-05 0.000208042 0.00175294 0.000176742 0.153313 0.445735 0.317886 0.429096 0.504898 1.02142 0.769641 0.999511 0.929479 1.57564 1.23553 1.55373 1.38214 2.11987 1.70854 2.0984 1.84753 2.65886 2.18545 2.63767 2.31958 3.19473 2.66459 3.17364 2.79543 3.72855 3.14502 3.70735 3.2735 4.26086 3.62606 4.2392 3.75293 4.7923 4.10741 4.76911 4.23367 5.32436 4.5773 5.2961 5.95247e-06 5.80215e-06 5.92293e-06 5.43925e-06 5.62481e-06 4.99396e-06 5.25312e-06 4.50159e-06 4.73533e-06 3.71459e-06 4.41966e-06 2.6763e-06 4.07732e-06 3.07283e-06 4.80166e-06 8.93028e-07 5.39385e-06 5.38701e-06 7.59325e-06 4.37445e-06 9.05906e-06 9.99288e-06 1.2058e-05 9.3108e-06 1.41176e-05 1.60867e-05 1.63827e-05 1.52352e-05 1.94357e-05 2.44285e-05 1.53192e-05 2.29949e-05 2.57784e-05 5.05387e-05 9.86753e-05 4.44892e-05 7.22173e-05 0.000223805 0.00176119 0.00019627 0.15141 0.442294 0.315546 0.425634 0.503083 1.01916 0.767972 0.997233 0.927983 1.574 1.23424 1.55206 1.38095 2.11864 1.70755 2.09714 1.84661 2.65796 2.18474 2.63674 2.31896 3.19423 2.66427 3.17308 2.79522 3.72863 3.14533 3.70734 3.27405 4.26198 3.62752 4.24016 3.7547 4.79505 4.11052 4.77168 4.23719 5.32894 4.58183 5.30061 6.27537e-06 6.21818e-06 6.50385e-06 5.85347e-06 6.31077e-06 5.90461e-06 6.60484e-06 5.28494e-06 6.22792e-06 5.72705e-06 6.98876e-06 4.60777e-06 6.58196e-06 6.22314e-06 8.26195e-06 4.71825e-06 8.09916e-06 8.09923e-06 1.09337e-05 6.84639e-06 1.13205e-05 1.18115e-05 1.50748e-05 1.10621e-05 1.64214e-05 1.76721e-05 1.97852e-05 1.71832e-05 2.28704e-05 2.66048e-05 2.16669e-05 2.66355e-05 3.02646e-05 5.56719e-05 0.000105896 5.27236e-05 7.84497e-05 0.000260541 0.00176556 0.000230572 0.149393 0.439001 0.313317 0.422251 0.501179 1.01701 0.766303 0.994966 0.926398 1.57246 1.23295 1.55042 1.37968 2.11749 1.70653 2.09591 1.84561 2.65714 2.18399 2.63586 2.31823 3.19374 2.66386 3.17256 2.79488 3.72865 3.1455 3.70739 3.27428 4.2629 3.62872 4.24114 3.75627 4.79771 4.11356 4.77439 4.2405 5.33389 4.58645 5.30516 5.65147e-06 5.32514e-06 5.94317e-06 5.75198e-06 5.89199e-06 5.24641e-06 6.29093e-06 5.55321e-06 6.15124e-06 5.44621e-06 6.97693e-06 5.56872e-06 6.81361e-06 6.21018e-06 8.40801e-06 6.23385e-06 8.26488e-06 7.91557e-06 1.11748e-05 8.1719e-06 1.09974e-05 1.11077e-05 1.61396e-05 1.21005e-05 1.58208e-05 1.68565e-05 2.39832e-05 1.90311e-05 2.43372e-05 2.72307e-05 3.24418e-05 3.13652e-05 3.79419e-05 7.18971e-05 0.000146364 6.59249e-05 9.51083e-05 0.000408491 0.00177413 0.000331234 0.146545 0.436412 0.311914 0.419045 0.498654 1.01525 0.765157 0.992842 0.924277 1.57131 1.232 1.54884 1.37791 2.11662 1.70577 2.09474 1.84407 2.65639 2.18335 2.63494 2.31686 3.19308 2.66339 3.17192 2.79368 3.72811 3.14536 3.7071 3.2735 4.26279 3.62941 4.24172 3.75584 4.79927 4.11622 4.7762 4.24425 5.34061 4.59202 5.31069 3.68247e-06 3.10318e-06 3.95479e-06 4.17876e-06 4.09966e-06 3.26279e-06 4.33813e-06 4.14549e-06 4.58782e-06 3.873e-06 4.94498e-06 4.39748e-06 5.40879e-06 5.00766e-06 5.827e-06 5.0633e-06 6.65877e-06 6.68769e-06 7.01666e-06 6.24764e-06 8.35161e-06 8.68798e-06 8.79443e-06 8.29441e-06 1.06096e-05 9.79122e-06 1.52345e-05 1.35349e-05 1.59898e-05 6.63884e-06 6.50642e-05 3.25162e-05 5.02059e-05 2.16818e-05 0.000339128 0.000109042 0.000165282 0.000933489 0.00159706 0.000721177 0.139902 0.438936 0.315722 0.417057 0.492468 1.01709 0.767563 0.990778 0.918502 1.57311 1.23461 1.54782 1.3722 2.11787 1.70816 2.09362 1.83803 2.65696 2.18554 2.63356 2.31024 3.19282 2.66526 3.1701 2.7863 3.72679 3.1467 3.70478 3.26489 4.25947 3.63008 4.23876 3.74643 4.79269 4.11931 4.77547 4.23195 5.34669 4.60177 5.31342 1.2186e-06 1.06992e-06 1.76259e-06 1.75129e-06 2.24072e-06 2.64458e-06 3.106e-06 2.49738e-06 3.66111e-06 4.65383e-06 4.99256e-06 3.9666e-06 5.5612e-06 7.28922e-06 7.56731e-06 6.08814e-06 8.11042e-06 1.08654e-05 1.10652e-05 8.98739e-06 1.14965e-05 1.57459e-05 1.56752e-05 1.2683e-05 1.56185e-05 2.1711e-05 2.15265e-05 1.69712e-05 1.89444e-05 2.28155e-05 3.31503e-05 2.66504e-05 3.18463e-05 5.36146e-05 0.000255358 9.8484e-05 0.000273945 0.00431347 0.00421612 0.00162925 0.104384 0.488999 0.341049 0.418566 0.428402 1.08216 0.801881 0.993287 0.851356 1.64752 1.27005 1.54939 1.30523 2.20165 1.7446 2.09456 1.77212 2.74958 2.22275 2.63397 2.24548 3.29405 2.70324 3.17011 2.72248 3.83655 3.18522 3.70414 3.20172 4.37828 3.66742 4.23607 3.68156 4.91873 4.14492 4.76308 4.15746 5.41074 4.65942 5.31229
</DataArray>
<DataArray Name="GAMMADOT" NumberOfComponents="3" type="Float32" format="ascii" >
 2.67451e-06 -2.64079e-06 3.04834e-07 3.45453e-06 -4.03778e-06 7.4428e-07 2.71614e-06 -2.45863e-06 5.49071e-08 1.1611e-06 -1.40033e-06 4.75792e-07 2.70514e-06 -2.28543e-06 9.16075e-07 3.55388e-06 -4.22584e-06 1.77016e-06 2.85634e-06 -2.64876e-06 7.89524e-07 1.06625e-06 -1.43771e-06 1.14234e-06 2.91341e-06 -2.21247e-06 1.74985e-06 3.76651e-06 -4.58962e-06 2.97234e-06 3.14948e-06 -2.97744e-06 1.64867e-06 1.00888e-06 -1.6019e-06 1.97292e-06 3.27106e-06 -2.19586e-06 2.77899e-06 4.16505e-06 -5.20514e-06 4.5476e-06 3.62737e-06 -3.53255e-06 2.74098e-06 9.88661e-07 -1.88029e-06 3.01473e-06 3.83677e-06 -2.21851e-06 4.14512e-06 4.80814e-06 -6.17127e-06 6.75508e-06 4.37649e-06 -4.466e-06 4.24252e-06 1.02117e-06 -2.32587e-06 4.39453e-06 4.71939e-06 -2.23382e-06 6.08173e-06 5.67118e-06 -7.61989e-06 1.01168e-05 5.57593e-06 -6.26357e-06 6.57753e-06 1.16727e-06 -3.05304e-06 6.3362e-06 6.23146e-06 -2.06661e-06 9.08985e-06 6.16892e-06 -9.70706e-06 1.6152e-05 7.89896e-06 -1.14788e-05 1.12107e-05 1.78578e-06 -4.48725e-06 9.15696e-06 9.92078e-06 -1.9444e-07 1.46871e-05 2.12966e-06 -1.20739e-05 3.02422e-05 1.38941e-05 -3.34722e-05 2.47642e-05 5.10399e-06 -7.62673e-06 1.35137e-05 2.14178e-05 1.09696e-05 2.77256e-05 -3.38348e-05 -4.78971e-06 7.2358e-05 2.95273e-05 -0.000132315 8.02789e-05 2.2074e-05 -1.32169e-05 2.31269e-05 4.62195e-05 9.79905e-05 7.12474e-05 -0.000102032 0.00013723 7.40017e-05 -6.2413e-05 -0.000253762 -0.00066352 9.73061e-06 2.69877e-05 7.56629e-05 -0.0401683 -0.0220849 -0.172481 0.0728288 0.0171799 -0.454114 -0.044949 -0.0297276 -0.273974 0.141548 0.0228458 -0.448636 -0.0986609 -0.0510915 -0.54005 0.139037 0.054648 -1.01972 -0.0974621 -0.0685346 -0.704751 0.293566 0.0554486 -1.02422 -0.151214 -0.0809971 -0.964138 0.188338 0.0929201 -1.5675 -0.146458 -0.104277 -1.16228 0.426342 0.0859682 -1.57946 -0.200246 -0.111209 -1.41336 0.231441 0.130646 -2.10675 -0.193636 -0.138035 -1.62975 0.548438 0.114123 -2.12371 -0.247357 -0.141157 -1.87493 0.2711 0.167891 -2.64143 -0.239505 -0.169981 -2.10182 0.664344 0.140902 -2.66219 -0.293342 -0.170641 -2.34317 0.308447 0.204914 -3.17335 -0.28464 -0.200065 -2.57606 0.776024 0.166845 -3.19693 -0.338874 -0.19966 -2.81521 0.344009 0.242117 -3.70375 -0.329718 -0.227251 -3.05132 0.88441 0.192506 -3.72873 -0.384795 -0.228259 -3.2895 0.37822 0.280028 -4.23463 -0.376182 -0.247333 -3.52781 0.989543 0.219115 -4.25729 -0.433864 -0.259119 -3.7669 0.415578 0.31914 -4.77293 -0.427504 -0.245689 -4.01102 1.08895 0.247993 -4.78331 -0.483141 -0.305003 -4.24947 0.453682 0.303113 -5.28878 -0.409538 -0.311586 -4.44161 1.17319 0.253648 -5.35628 6.41259e-06 -6.0596e-06 -5.25859e-09 5.95066e-06 -7.11241e-06 1.57843e-06 6.51176e-06 -6.03318e-06 5.14169e-07 5.39591e-06 -5.92997e-06 1.22407e-06 6.45627e-06 -5.50746e-06 1.09714e-06 5.69017e-06 -7.18276e-06 3.43847e-06 6.60586e-06 -6.18694e-06 2.10903e-06 5.47223e-06 -6.07885e-06 2.62098e-06 6.55534e-06 -5.06963e-06 2.70972e-06 5.2641e-06 -7.13129e-06 5.7389e-06 6.73682e-06 -6.37493e-06 4.13817e-06 5.60215e-06 -6.39479e-06 4.41481e-06 6.66486e-06 -4.50304e-06 4.73856e-06 4.52e-06 -6.93981e-06 8.77889e-06 6.87854e-06 -6.61542e-06 6.91887e-06 5.89821e-06 -6.87445e-06 6.81955e-06 6.73583e-06 -3.65959e-06 7.47368e-06 3.17851e-06 -6.41033e-06 1.29754e-05 6.92751e-06 -6.87428e-06 1.09182e-05 6.38497e-06 -7.52812e-06 1.02313e-05 6.56651e-06 -2.21343e-06 1.13059e-05 5.95822e-07 -4.98165e-06 1.88573e-05 6.50033e-06 -6.97959e-06 1.68325e-05 6.97677e-06 -8.19325e-06 1.5273e-05 5.54859e-06 7.01801e-07 1.67788e-05 -4.753e-06 -1.19052e-06 2.69166e-05 4.39355e-06 -6.63107e-06 2.5413e-05 6.9929e-06 -7.87784e-06 2.29631e-05 2.33512e-06 7.36339e-06 2.41738e-05 -1.67818e-05 8.99644e-06 3.72001e-05 -1.76812e-06 -1.09321e-05 3.69414e-05 2.5354e-06 -2.83995e-06 3.37165e-05 1.45596e-06 2.82037e-05 3.41699e-05 -5.30806e-05 3.08014e-05 5.45329e-05 -3.24945e-06 -0.000100218 4.15258e-05 -2.36342e-05 2.2987e-05 3.65677e-05 4.85227e-05 0.000102374 3.03995e-05 -1.48597e-05 0.000168851 -8.34776e-05 -0.000148342 -0.000621578 -0.00145878 -0.000127407 0.000162668 8.4108e-06 -0.0366065 -0.0261268 -0.158603 0.0804969 0.03068 -0.451297 -0.0424441 -0.0408297 -0.312937 0.0256533 0.0412838 -0.438942 -0.086028 -0.0692667 -0.505857 0.149334 0.0757147 -1.02019 -0.0953259 -0.0936498 -0.760587 0.0720446 0.0924053 -1.00357 -0.13215 -0.11243 -0.926968 0.202511 0.121388 -1.56968 -0.143326 -0.142148 -1.22254 0.118485 0.137743 -1.55234 -0.176218 -0.154749 -1.37671 0.24937 0.165342 -2.11076 -0.188695 -0.187993 -1.69242 0.163856 0.18087 -2.09308 -0.218914 -0.196153 -1.83963 0.293089 0.208006 -2.64729 -0.232402 -0.23183 -2.16664 0.207495 0.222677 -2.6292 -0.260739 -0.236726 -2.30959 0.334884 0.249665 -3.18128 -0.275022 -0.274216 -2.64364 0.249641 0.26378 -3.16276 -0.30194 -0.276532 -2.78375 0.375459 0.290385 -3.71366 -0.316745 -0.315772 -3.12263 0.290598 0.304428 -3.69495 -0.342402 -0.315833 -3.26082 0.415708 0.329933 -4.24476 -0.356945 -0.357864 -3.60266 0.330955 0.343973 -4.22701 -0.380783 -0.355602 -3.73837 0.454367 0.364548 -4.77034 -0.391761 -0.403843 -4.0784 0.376306 0.379153 -4.75854 -0.412453 -0.392573 -4.21529 0.493706 0.408307 -5.29078 -0.432682 -0.430123 -4.52918 0.442585 0.404344 -5.2677 7.34273e-06 -6.93575e-06 -4.05499e-07 5.97395e-06 -7.27797e-06 2.00011e-06 7.39361e-06 -6.87844e-06 8.08678e-07 7.03256e-06 -7.49906e-06 1.82035e-06 7.13709e-06 -6.29061e-06 1.0706e-06 5.2119e-06 -6.86979e-06 4.0992e-06 6.98593e-06 -6.37325e-06 2.88063e-06 6.72374e-06 -7.30114e-06 3.89477e-06 6.47901e-06 -5.26062e-06 3.07787e-06 3.83139e-06 -5.788e-06 6.57925e-06 6.08348e-06 -5.38969e-06 5.36227e-06 6.07452e-06 -6.78894e-06 6.40785e-06 5.25278e-06 -3.6854e-06 5.4551e-06 1.64457e-06 -3.92738e-06 9.58114e-06 4.52287e-06 -3.72376e-06 8.43745e-06 4.99373e-06 -5.79375e-06 9.57524e-06 3.22832e-06 -1.36166e-06 8.36246e-06 -1.56542e-06 -1.00652e-06 1.31749e-05 1.97553e-06 -1.03448e-06 1.21675e-05 3.16555e-06 -4.01404e-06 1.36236e-05 -5.41633e-09 2.03215e-06 1.18473e-05 -6.08076e-06 3.40563e-06 1.71817e-05 -2.10883e-06 3.10149e-06 1.62742e-05 -6.62849e-08 -8.16606e-07 1.86118e-05 -4.95489e-06 7.02856e-06 1.56219e-05 -1.22791e-05 9.90783e-06 2.10322e-05 -8.24237e-06 7.72528e-06 1.98583e-05 -6.02947e-06 4.92835e-06 2.38888e-05 -1.08829e-05 1.4808e-05 1.90296e-05 -2.21585e-05 1.87496e-05 2.50454e-05 -1.45611e-05 -7.48305e-07 2.13916e-05 -1.70524e-05 1.52756e-05 2.62387e-05 -5.56916e-06 3.50951e-05 2.04286e-05 -4.92845e-05 3.81016e-05 3.61177e-05 -3.44562e-06 -0.000121867 1.66091e-05 -4.44054e-05 3.63488e-05 1.07766e-05 5.91107e-05 7.95485e-05 2.04852e-05 5.04988e-06 0.000156547 -0.000134799 -0.000154065 -0.000707481 -0.0016124 -8.79205e-05 0.000170464 -5.51012e-05 -0.0361435 -0.0260411 -0.154482 0.08167 0.0327182 -0.448447 -0.0432429 -0.0436579 -0.318326 0.00636059 0.0463199 -0.435091 -0.0845174 -0.0714309 -0.50246 0.151999 0.0798295 -1.01851 -0.0952116 -0.0978023 -0.765783 0.0451842 0.0983313 -1.00108 -0.130276 -0.116076 -0.924168 0.205885 0.126044 -1.5695 -0.1426 -0.148349 -1.22849 0.0901907 0.144586 -1.5522 -0.173746 -0.159596 -1.3743 0.253528 0.170451 -2.11118 -0.187097 -0.195963 -1.69882 0.134487 0.187846 -2.09436 -0.215647 -0.202288 -1.83743 0.297927 0.213287 -2.64799 -0.229798 -0.241557 -2.17333 0.1775 0.229431 -2.63145 -0.256491 -0.244194 -2.30733 0.340288 0.254984 -3.1818 -0.271264 -0.285624 -2.65019 0.219346 0.269925 -3.16544 -0.296566 -0.285376 -2.78107 0.381206 0.295855 -3.71348 -0.311798 -0.328519 -3.12818 0.26032 0.309569 -3.69728 -0.336009 -0.32601 -3.25669 0.420751 0.335858 -4.24285 -0.351451 -0.370331 -3.6059 0.301047 0.348363 -4.22696 -0.374793 -0.365639 -3.73296 0.459347 0.376619 -4.77005 -0.391389 -0.409336 -4.08148 0.341572 0.386397 -4.75272 -0.417575 -0.406916 -4.20568 0.496569 0.417828 -5.29419 -0.437538 -0.42739 -4.54411 0.378186 0.428185 -5.26936 6.54621e-06 -6.30534e-06 -7.21261e-07 5.16767e-06 -6.14826e-06 1.81074e-06 6.46652e-06 -6.07656e-06 3.03045e-07 6.40297e-06 -6.78472e-06 1.8993e-06 6.01783e-06 -5.64563e-06 3.62171e-07 4.13842e-06 -5.31493e-06 3.16989e-06 5.51412e-06 -4.96132e-06 1.86023e-06 5.67849e-06 -6.11482e-06 3.71571e-06 4.60388e-06 -4.21427e-06 1.82768e-06 2.23213e-06 -3.45714e-06 4.7082e-06 3.6437e-06 -2.97447e-06 3.59297e-06 4.18388e-06 -4.63893e-06 5.79606e-06 2.22199e-06 -1.9507e-06 3.44814e-06 -6.46003e-07 -5.40373e-07 6.42619e-06 7.49246e-07 3.2757e-08 5.52798e-06 1.81165e-06 -2.20629e-06 8.20821e-06 -1.24466e-06 1.23797e-06 5.24907e-06 -4.5216e-06 3.49704e-06 8.27903e-06 -3.28506e-06 4.15616e-06 7.56023e-06 -1.63212e-06 1.35094e-06 1.09314e-05 -5.85489e-06 5.42439e-06 7.13585e-06 -9.3257e-06 8.62705e-06 1.01102e-05 -8.44962e-06 9.13857e-06 9.4008e-06 -6.35733e-06 6.19154e-06 1.36993e-05 -1.13141e-05 1.06563e-05 8.87166e-06 -1.50351e-05 1.46081e-05 1.18221e-05 -1.41884e-05 1.27102e-05 1.05987e-05 -1.25193e-05 1.24096e-05 1.57359e-05 -1.5564e-05 1.77182e-05 1.00244e-05 -2.31532e-05 2.17474e-05 1.44723e-05 -1.74889e-05 -3.01939e-07 1.09892e-05 -2.11192e-05 2.04412e-05 1.45083e-05 -5.93551e-06 3.37746e-05 1.13839e-05 -4.82321e-05 3.70078e-05 2.79371e-05 -6.93844e-07 -0.000130623 8.12654e-06 -4.31911e-05 3.61743e-05 -2.38685e-06 6.39297e-05 7.55846e-05 1.27636e-05 9.2069e-06 0.000150133 -0.000162505 -0.000147127 -0.000749603 -0.00165105 -6.37428e-05 0.000168414 -9.66381e-05 -0.0358137 -0.0258001 -0.152116 0.0814383 0.0328081 -0.444927 -0.043018 -0.0435299 -0.317113 0.00321241 0.0466068 -0.431383 -0.0840855 -0.0716754 -0.500577 0.152173 0.079897 -1.01642 -0.0948947 -0.0981722 -0.765081 0.0421326 0.0986585 -0.998859 -0.129724 -0.116574 -0.922677 0.206298 0.126083 -1.56798 -0.142065 -0.148985 -1.22805 0.087318 0.144765 -1.55074 -0.173003 -0.160345 -1.37315 0.254107 0.170356 -2.11005 -0.1864 -0.196912 -1.69862 0.131846 0.187879 -2.09335 -0.214737 -0.203235 -1.83651 0.298646 0.213131 -2.6471 -0.228954 -0.242736 -2.17329 0.17501 0.229316 -2.63072 -0.255462 -0.245311 -2.30661 0.341086 0.254859 -3.18112 -0.270367 -0.286951 -2.65028 0.216912 0.269742 -3.16487 -0.295566 -0.28659 -2.78047 0.381913 0.295918 -3.71297 -0.311078 -0.32978 -3.12843 0.257748 0.309555 -3.6967 -0.33539 -0.326973 -3.25639 0.421309 0.336852 -4.243 -0.351623 -0.370979 -3.60678 0.297589 0.349082 -4.22637 -0.3758 -0.366518 -3.73287 0.459145 0.378169 -4.77125 -0.393156 -0.407905 -4.08454 0.336085 0.389064 -4.75314 -0.419393 -0.405176 -4.20991 0.496864 0.419839 -5.29981 -0.438825 -0.42916 -4.55145 0.373128 0.431024 -5.27583 5.81327e-06 -5.70666e-06 -8.8658e-07 4.9955e-06 -5.51288e-06 1.24493e-06 5.59938e-06 -5.39903e-06 -7.73965e-07 5.30254e-06 -5.77904e-06 1.50816e-06 5.09012e-06 -5.11426e-06 -8.0438e-07 4.01314e-06 -4.50982e-06 1.34862e-06 4.37726e-06 -4.11724e-06 -3.6929e-07 4.42914e-06 -4.81697e-06 2.25387e-06 3.33628e-06 -3.62866e-06 -4.83089e-07 2.12282e-06 -2.41765e-06 1.46013e-06 2.09595e-06 -1.85638e-06 1.43042e-08 2.6009e-06 -2.83853e-06 3.08236e-06 4.97459e-07 -1.22442e-06 -1.85497e-07 -7.57524e-07 7.78799e-07 1.53939e-06 -1.29001e-06 1.46157e-06 3.88006e-07 -2.0833e-07 2.38476e-07 3.98205e-06 -3.45603e-06 2.12856e-06 9.63907e-08 -4.65568e-06 5.08565e-06 1.60934e-06 -5.76577e-06 5.80014e-06 7.676e-07 -4.01392e-06 4.42044e-06 4.93382e-06 -8.4187e-06 6.41251e-06 3.91664e-07 -9.52369e-06 1.03749e-05 1.78374e-06 -1.11127e-05 1.07095e-05 1.19317e-06 -8.73154e-06 9.59409e-06 5.85787e-06 -1.38636e-05 1.15847e-05 7.58198e-07 -1.5343e-05 1.63915e-05 2.43556e-06 -1.65446e-05 1.37013e-05 1.78004e-06 -1.42427e-05 1.54969e-05 6.432e-06 -1.75433e-05 1.82248e-05 1.47323e-06 -2.37592e-05 2.3276e-05 5.42087e-06 -1.89229e-05 -4.44587e-07 3.16074e-06 -2.1455e-05 2.24705e-05 4.96839e-06 -6.70718e-06 3.36988e-05 3.76902e-06 -4.97106e-05 3.82205e-05 2.14739e-05 -5.0682e-07 -0.000135346 2.75534e-06 -4.1776e-05 3.63393e-05 -1.06584e-05 6.4032e-05 7.59935e-05 7.74641e-06 4.53356e-06 0.000150858 -0.000178583 -0.000142065 -0.000771875 -0.00166277 -5.30354e-05 0.000169353 -0.000124463 -0.0354983 -0.0255234 -0.150164 0.0810486 0.0325816 -0.441435 -0.0427637 -0.0432411 -0.314964 0.00244232 0.0464136 -0.427836 -0.0838713 -0.0715128 -0.498847 0.152092 0.07972 -1.01417 -0.0946452 -0.098089 -0.763582 0.0415807 0.0985029 -0.996648 -0.129447 -0.116569 -0.921281 0.206352 0.125869 -1.56634 -0.141758 -0.14907 -1.22694 0.0869664 0.144529 -1.54914 -0.172651 -0.160477 -1.37205 0.25426 0.170104 -2.1088 -0.186022 -0.197113 -1.69776 0.131669 0.18754 -2.09213 -0.214327 -0.203475 -1.83567 0.298867 0.212856 -2.64617 -0.228546 -0.243025 -2.17268 0.174944 0.228919 -2.62979 -0.255048 -0.245614 -2.30602 0.341342 0.254617 -3.18051 -0.270002 -0.287261 -2.64997 0.216875 0.269364 -3.1642 -0.295255 -0.286876 -2.78023 0.38217 0.295857 -3.71286 -0.310935 -0.329977 -3.12864 0.25758 0.309351 -3.69641 -0.335447 -0.327173 -3.25669 0.42146 0.337078 -4.24374 -0.351974 -0.370775 -3.60799 0.297024 0.349373 -4.22678 -0.37641 -0.366257 -3.73452 0.45928 0.378916 -4.77377 -0.394155 -0.407541 -4.0878 0.335027 0.390037 -4.75523 -0.420355 -0.405011 -4.2135 0.497241 0.420547 -5.30441 -0.439514 -0.429468 -4.55663 0.37217 0.432151 -5.28072 5.95328e-06 -5.81091e-06 -9.09804e-07 5.66836e-06 -5.85839e-06 6.62871e-07 5.67034e-06 -5.61443e-06 -1.80105e-06 4.97816e-06 -5.71224e-06 9.37834e-07 5.24558e-06 -5.34716e-06 -1.89326e-06 4.98389e-06 -4.97967e-06 -3.48471e-07 4.52642e-06 -4.62244e-06 -2.58216e-06 4.22021e-06 -4.72933e-06 4.19485e-07 3.63248e-06 -4.10219e-06 -2.72248e-06 3.59642e-06 -3.1889e-06 -1.49885e-06 2.4237e-06 -2.77992e-06 -3.56823e-06 2.54844e-06 -2.78879e-06 -1.63216e-07 1.01778e-06 -2.02875e-06 -3.74815e-06 1.35745e-06 -3.98197e-07 -2.90545e-06 -7.38044e-07 3.65273e-08 -4.77314e-06 -5.58504e-08 2.29955e-07 -8.77211e-07 -2.71717e-06 9.55955e-07 -4.99452e-06 -1.94321e-06 3.56239e-06 -4.55923e-06 -5.06946e-06 3.93598e-06 -6.08784e-06 -3.63024e-06 4.40589e-06 -1.6854e-06 -7.64794e-06 4.96874e-06 -6.36214e-06 -6.61342e-06 8.8778e-06 -6.21139e-06 -1.05659e-05 8.7294e-06 -7.1746e-06 -8.16491e-06 9.73873e-06 -2.43651e-06 -1.35022e-05 1.0203e-05 -7.49009e-06 -1.31622e-05 1.56509e-05 -7.04866e-06 -1.66863e-05 1.22432e-05 -7.36391e-06 -1.36536e-05 1.61323e-05 -2.96232e-06 -1.82476e-05 1.74836e-05 -7.64346e-06 -2.36655e-05 2.43865e-05 -4.40183e-06 -2.03239e-05 -9.72211e-07 -5.26081e-06 -2.11907e-05 2.38688e-05 -4.40252e-06 -8.7426e-06 3.48268e-05 -4.45615e-06 -5.40731e-05 4.20819e-05 1.43792e-05 -2.86089e-06 -0.000139471 -2.59011e-06 -4.21777e-05 3.86726e-05 -1.84939e-05 6.07471e-05 8.20509e-05 2.01233e-06 -1.30249e-05 0.00016158 -0.000192223 -0.000143832 -0.00078838 -0.00166754 -5.00337e-05 0.000177245 -0.000146842 -0.0351827 -0.0252364 -0.148283 0.0807095 0.0322917 -0.438002 -0.0424855 -0.042916 -0.312643 0.0021032 0.0460991 -0.424381 -0.0836909 -0.0712756 -0.497042 0.15198 0.079536 -1.01192 -0.0944735 -0.0978893 -0.761924 0.0412705 0.0983235 -0.994378 -0.129292 -0.116419 -0.919792 0.206314 0.125736 -1.5647 -0.141608 -0.148951 -1.22565 0.0867564 0.144349 -1.54748 -0.172504 -0.160395 -1.37087 0.254257 0.170001 -2.10757 -0.185883 -0.197053 -1.69677 0.131546 0.187352 -2.09088 -0.214186 -0.20344 -1.83476 0.298896 0.212779 -2.64527 -0.228422 -0.243009 -2.17198 0.174875 0.22873 -2.62887 -0.254928 -0.245616 -2.30541 0.34142 0.254573 -3.18 -0.269918 -0.287276 -2.64965 0.216818 0.269207 -3.16365 -0.29519 -0.286906 -2.78002 0.38233 0.295849 -3.71293 -0.310941 -0.330004 -3.12894 0.257475 0.309303 -3.6964 -0.335497 -0.327234 -3.25723 0.421787 0.337153 -4.24484 -0.352146 -0.370826 -3.60945 0.296801 0.349519 -4.22775 -0.376635 -0.366363 -3.73628 0.45983 0.379075 -4.7765 -0.394519 -0.407658 -4.0909 0.334689 0.39046 -4.7578 -0.420729 -0.405249 -4.21701 0.497863 0.420862 -5.30896 -0.43993 -0.429843 -4.56114 0.372063 0.432646 -5.28523 6.36658e-06 -6.06353e-06 -8.54579e-07 6.16694e-06 -6.25422e-06 3.04249e-07 6.11146e-06 -6.12048e-06 -2.21245e-06 5.33968e-06 -6.29018e-06 4.7311e-07 5.86417e-06 -5.78545e-06 -2.42815e-06 5.86236e-06 -5.70218e-06 -1.19307e-06 5.32487e-06 -5.66491e-06 -3.66076e-06 4.85683e-06 -5.54701e-06 -8.66892e-07 4.77467e-06 -4.96029e-06 -3.88407e-06 5.24715e-06 -4.6119e-06 -2.89793e-06 3.90124e-06 -4.72392e-06 -5.4841e-06 3.70089e-06 -4.14463e-06 -2.40713e-06 3.01349e-06 -3.57651e-06 -5.69087e-06 4.22985e-06 -2.917e-06 -5.05245e-06 1.71899e-06 -3.19228e-06 -7.85411e-06 1.81884e-06 -1.91323e-06 -4.33331e-06 3.88331e-07 -1.51114e-06 -8.02366e-06 2.59651e-06 -3.51698e-07 -7.88446e-06 -1.50794e-06 -8.26441e-07 -1.08658e-05 -9.6177e-07 1.40441e-06 -6.73976e-06 -3.49112e-06 1.54619e-06 -1.09939e-05 -3.50735e-07 3.72669e-06 -1.15112e-05 -6.30484e-06 2.71342e-06 -1.4272e-05 -4.93192e-06 6.27797e-06 -9.51327e-06 -9.11968e-06 6.2848e-06 -1.44336e-05 -6.44061e-06 1.06385e-05 -1.53289e-05 -1.31119e-05 6.16313e-06 -1.69264e-05 -1.05933e-05 1.33907e-05 -1.2227e-05 -1.55299e-05 1.45354e-05 -1.72287e-05 -2.01049e-05 2.24293e-05 -1.59429e-05 -1.99855e-05 -4.89197e-06 -1.60555e-05 -1.94921e-05 2.42718e-05 -1.49973e-05 -1.04923e-05 3.44032e-05 -1.64046e-05 -6.16319e-05 4.88063e-05 3.01424e-06 -6.86559e-06 -0.000148572 -1.23911e-05 -4.38835e-05 4.27032e-05 -3.00851e-05 5.15746e-05 9.74541e-05 -8.7024e-06 -6.54225e-05 0.000195078 -0.000216133 -0.000159525 -0.000806011 -0.00166723 -5.47562e-05 0.000200107 -0.000177885 -0.0348453 -0.0249202 -0.14629 0.0808401 0.03189 -0.434679 -0.0422219 -0.0425783 -0.310435 0.00181442 0.045719 -0.42101 -0.0835427 -0.0709263 -0.495152 0.152201 0.0793342 -1.00974 -0.0944106 -0.0975825 -0.760264 0.0409132 0.0981236 -0.992122 -0.129259 -0.116106 -0.918216 0.206511 0.125662 -1.56314 -0.141642 -0.148637 -1.22437 0.0864438 0.144239 -1.54585 -0.172557 -0.160073 -1.3696 0.254375 0.170045 -2.10641 -0.185999 -0.196742 -1.69576 0.131255 0.187297 -2.08966 -0.214306 -0.203113 -1.83376 0.298978 0.212895 -2.64443 -0.228584 -0.242703 -2.17123 0.174602 0.228724 -2.62799 -0.255077 -0.245303 -2.30468 0.341526 0.254706 -3.1795 -0.270091 -0.28702 -2.64924 0.216564 0.269227 -3.16314 -0.295316 -0.286672 -2.77968 0.382598 0.295917 -3.71293 -0.311046 -0.329914 -3.12911 0.257256 0.309298 -3.69646 -0.335457 -0.327135 -3.25748 0.422406 0.336964 -4.24575 -0.352079 -0.371084 -3.61065 0.296707 0.349505 -4.22873 -0.376442 -0.366837 -3.73784 0.461007 0.378698 -4.77913 -0.394294 -0.408271 -4.09393 0.334777 0.390308 -4.76052 -0.420566 -0.405781 -4.22032 0.499143 0.420715 -5.31388 -0.440165 -0.430307 -4.56575 0.372275 0.432746 -5.28979 5.79995e-06 -5.38805e-06 -7.77095e-07 5.28724e-06 -5.36045e-06 1.11557e-07 5.6162e-06 -5.64389e-06 -1.9036e-06 5.28169e-06 -6.17926e-06 2.13172e-07 5.51159e-06 -5.3083e-06 -2.33191e-06 5.13571e-06 -5.02646e-06 -1.30555e-06 5.16467e-06 -5.53271e-06 -3.30657e-06 5.06709e-06 -5.74281e-06 -1.22905e-06 4.90437e-06 -4.83866e-06 -3.75567e-06 4.8804e-06 -4.42262e-06 -2.82351e-06 4.40526e-06 -5.26761e-06 -5.01004e-06 4.52096e-06 -5.01078e-06 -2.87003e-06 4.02471e-06 -4.09796e-06 -5.47079e-06 4.58125e-06 -3.64306e-06 -4.62995e-06 3.38202e-06 -4.9624e-06 -7.25692e-06 3.6444e-06 -3.94609e-06 -4.9431e-06 2.91172e-06 -3.08786e-06 -7.70076e-06 4.46833e-06 -2.80195e-06 -6.98196e-06 2.10224e-06 -4.8708e-06 -1.05264e-05 2.32405e-06 -2.46569e-06 -7.81278e-06 1.53288e-06 -1.67947e-06 -1.08792e-05 4.8321e-06 -1.87324e-06 -1.04858e-05 3.07834e-07 -5.38357e-06 -1.56828e-05 1.21053e-07 -1.16496e-07 -1.21e-05 -5.6829e-07 9.33764e-07 -1.58019e-05 4.78811e-06 4.44429e-07 -1.651e-05 -3.41249e-06 -7.21733e-06 -2.33093e-05 -4.27625e-06 5.05533e-06 -1.84462e-05 -4.6519e-06 8.08403e-06 -2.34265e-05 -5.6914e-06 1.16907e-05 -2.56316e-05 -1.19722e-05 -2.11358e-05 -2.75216e-05 -1.40859e-05 1.898e-05 -2.65415e-05 -2.02957e-06 3.41834e-05 -2.92109e-05 -8.08208e-05 5.84446e-05 -1.39751e-05 -5.39492e-06 -0.000203623 -2.60105e-05 -4.16462e-05 4.87526e-05 -4.78589e-05 3.13081e-05 0.00011694 -4.14492e-05 -0.000253056 0.000309702 -0.000294768 -0.000215524 -0.000857305 -0.00166037 -6.28469e-05 0.000269391 -0.000267311 -0.0343509 -0.0244522 -0.14348 0.0835053 0.031047 -0.431841 -0.0421554 -0.0422167 -0.309048 0.00138072 0.0450378 -0.417832 -0.083559 -0.0699153 -0.492667 0.155421 0.0786476 -1.00775 -0.0947055 -0.0968297 -0.759139 0.0402457 0.0976488 -0.99003 -0.12948 -0.114973 -0.916131 0.209463 0.125255 -1.5618 -0.142221 -0.147762 -1.22344 0.0857073 0.143847 -1.54431 -0.173015 -0.158858 -1.36786 0.257047 0.169859 -2.10538 -0.18672 -0.19569 -1.69501 0.1305 0.187083 -2.08852 -0.214914 -0.201798 -1.83225 0.30149 0.212846 -2.64354 -0.229396 -0.241589 -2.1706 0.173801 0.228574 -2.6271 -0.255743 -0.243925 -2.30335 0.344055 0.254638 -3.1787 -0.270869 -0.285952 -2.64879 0.215765 0.269066 -3.16253 -0.295866 -0.285329 -2.77852 0.385396 0.295546 -3.71226 -0.311577 -0.329072 -3.12899 0.256573 0.308995 -3.69621 -0.335613 -0.326181 -3.25673 0.426141 0.335899 -4.24549 -0.351908 -0.371024 -3.61135 0.296237 0.348628 -4.22936 -0.375315 -0.366117 -3.7375 0.466211 0.376095 -4.78054 -0.393277 -0.409482 -4.0966 0.335032 0.389367 -4.76237 -0.419749 -0.408151 -4.22401 0.504376 0.419481 -5.32043 -0.440308 -0.429679 -4.57137 0.372741 0.431744 -5.29535 3.79884e-06 -3.44207e-06 -6.48883e-07 3.15077e-06 -3.04058e-06 -2.08593e-07 3.63862e-06 -3.71627e-06 -1.45438e-06 3.85162e-06 -4.48176e-06 -3.8135e-08 3.56367e-06 -3.52535e-06 -2.05992e-06 2.95364e-06 -2.67811e-06 -1.64247e-06 3.23644e-06 -3.52891e-06 -2.7121e-06 3.70713e-06 -4.12631e-06 -1.34181e-06 3.00493e-06 -3.19326e-06 -3.38155e-06 2.50777e-06 -1.96135e-06 -3.15154e-06 2.51594e-06 -3.09557e-06 -4.06159e-06 3.3641e-06 -3.53426e-06 -2.72648e-06 2.13928e-06 -2.61758e-06 -4.8519e-06 1.66706e-06 -8.37113e-07 -4.83081e-06 1.48254e-06 -2.35882e-06 -5.48388e-06 2.87118e-06 -2.70939e-06 -4.22431e-06 9.88685e-07 -1.82309e-06 -6.49528e-06 3.21105e-07 7.30263e-07 -6.66386e-06 2.35718e-07 -1.4542e-06 -6.9389e-06 2.3538e-06 -1.79085e-06 -5.88721e-06 -1.44718e-07 -9.39189e-07 -8.32453e-06 -1.4081e-06 2.40192e-06 -8.46197e-06 -5.77722e-07 -1.76372e-06 -8.69596e-06 2.04586e-06 -1.23228e-06 -8.12067e-06 3.09732e-07 -2.30071e-07 -1.06061e-05 -2.43755e-06 2.5711e-06 -9.4653e-06 1.87211e-06 -1.21702e-05 -1.25013e-05 1.92574e-06 -2.23527e-06 -1.33732e-05 9.55561e-06 2.42207e-06 -1.43905e-05 -2.51749e-06 -2.2728e-06 -6.19051e-06 1.79209e-05 -8.29706e-05 -2.51138e-05 -1.05346e-06 -4.76488e-06 -3.23326e-05 5.45593e-05 2.74884e-05 -2.55826e-05 -2.37619e-05 9.61192e-06 1.18992e-05 6.84925e-05 -0.000463981 -7.08752e-05 -3.44845e-05 1.19192e-05 -0.000105946 8.20531e-05 0.0001807 -8.73241e-05 -0.000336789 0.000486501 -0.000834474 -0.00043581 -0.000821545 -0.0014554 -9.44138e-05 0.000533411 -0.000611045 -0.0330274 -0.0238993 -0.1369 0.103045 0.0262831 -0.432447 -0.0430411 -0.0395678 -0.313003 -0.000329234 0.0427795 -0.415959 -0.0842709 -0.0650765 -0.486679 0.181046 0.0741765 -1.00763 -0.0978959 -0.092991 -0.761602 0.0367787 0.0937336 -0.988216 -0.131382 -0.10823 -0.910581 0.235852 0.120612 -1.56192 -0.146084 -0.142017 -1.22618 0.0818976 0.139937 -1.54357 -0.175747 -0.150676 -1.3624 0.284456 0.165098 -2.10507 -0.191164 -0.188545 -1.69758 0.125951 0.182735 -2.08773 -0.21826 -0.192391 -1.82648 0.330023 0.207728 -2.64261 -0.234196 -0.233288 -2.173 0.16871 0.223838 -2.62609 -0.259454 -0.233486 -2.29702 0.373932 0.24897 -3.17698 -0.275792 -0.276795 -2.6509 0.21028 0.263754 -3.16112 -0.299657 -0.274072 -2.77147 0.416863 0.289103 -3.70948 -0.316256 -0.319604 -3.1306 0.250945 0.302759 -3.69433 -0.33891 -0.314328 -3.24849 0.459518 0.327732 -4.24073 -0.355377 -0.362476 -3.61229 0.29114 0.34086 -4.22689 -0.376672 -0.355227 -3.7285 0.506215 0.363238 -4.7724 -0.391496 -0.407748 -4.09987 0.330359 0.376453 -4.76232 -0.411334 -0.395117 -4.21268 0.568849 0.394658 -5.32423 -0.43907 -0.430192 -4.5812 0.370255 0.42147 -5.29859 1.21625e-06 -1.04917e-06 -4.41547e-07 9.91302e-07 -4.85667e-07 -7.31746e-07 1.06338e-06 -1.21588e-06 -1.34244e-06 1.46899e-06 -1.86325e-06 -5.02198e-07 1.04961e-06 -1.2255e-06 -1.92849e-06 1.30684e-06 -3.58333e-07 -2.46489e-06 7.63999e-07 -1.08411e-06 -2.96103e-06 1.29267e-06 -1.56228e-06 -2.04476e-06 6.48156e-07 -1.13078e-06 -3.54321e-06 1.63528e-06 -8.2646e-08 -4.50752e-06 2.07956e-07 -7.50806e-07 -4.96207e-06 8.7251e-07 -9.6312e-07 -3.85869e-06 -2.70074e-08 -8.9765e-07 -5.52482e-06 2.01519e-06 3.82087e-07 -7.14348e-06 -6.96517e-07 -5.48879e-08 -7.55116e-06 7.87005e-08 5.59158e-08 -6.08776e-06 -1.11511e-06 -5.10853e-07 -8.06392e-06 2.44371e-06 1.14749e-06 -1.06964e-05 -2.1358e-06 1.34752e-06 -1.09201e-05 -1.23279e-06 1.69215e-06 -8.86463e-06 -2.84115e-06 2.95813e-08 -1.13196e-05 2.83475e-06 2.43352e-06 -1.55227e-05 -4.37013e-06 4.32153e-06 -1.50607e-05 -3.21213e-06 4.17984e-06 -1.21229e-05 -5.3077e-06 3.46213e-07 -1.51589e-05 2.98344e-06 4.15384e-06 -2.14077e-05 -6.81735e-06 8.954e-06 -2.00016e-05 -6.07517e-06 7.21596e-06 -1.56055e-05 -4.66626e-06 -8.40707e-07 -1.86454e-05 4.97551e-06 1.88775e-06 -2.2503e-05 2.11135e-06 -1.33601e-05 -3.17407e-05 -1.34889e-05 5.71993e-06 -2.45542e-05 3.52754e-05 -1.16872e-05 -1.79921e-05 2.84388e-05 -5.17352e-05 3.36433e-05 0.000106425 -0.000334021 -6.13156e-05 -4.59948e-05 -2.35757e-05 -9.14518e-05 0.000346297 0.000172587 -1.38459e-05 0.00263676 0.000701804 -0.00385791 -0.00191632 -0.000336866 -0.00398532 -0.000392064 0.0007452 -0.00151656 -0.0247369 -0.0128181 -0.102508 0.228803 0.00985559 -0.461407 -0.0628277 -0.0316475 -0.337402 -0.0103916 0.0295623 -0.417979 -0.0794362 -0.0370436 -0.423895 0.410523 0.0389455 -1.04214 -0.124611 -0.0699458 -0.795489 0.0244992 0.0756834 -0.991693 -0.130022 -0.0681485 -0.845004 0.550122 0.0708265 -1.60015 -0.177179 -0.103673 -1.26173 0.0650235 0.114732 -1.54658 -0.177184 -0.101075 -1.29724 0.674827 0.100371 -2.14814 -0.226277 -0.136291 -1.73457 0.10563 0.151396 -2.09049 -0.222416 -0.133675 -1.7626 0.792163 0.128328 -2.69039 -0.273169 -0.167831 -2.21116 0.14505 0.186707 -2.62866 -0.266416 -0.165583 -2.2345 0.905016 0.155073 -3.22943 -0.318715 -0.198407 -2.69018 0.183439 0.221269 -3.16359 -0.309684 -0.196827 -2.71009 1.0148 0.181012 -3.76667 -0.36351 -0.227508 -3.17075 0.220963 0.255459 -3.69643 -0.352714 -0.227532 -3.18794 1.12219 0.206785 -4.30329 -0.408315 -0.252993 -3.65166 0.257852 0.28959 -4.22718 -0.396757 -0.259087 -3.66628 1.22588 0.232544 -4.83896 -0.454047 -0.266783 -4.12816 0.296336 0.323266 -4.75298 -0.438693 -0.30197 -4.14037 1.30738 0.226818 -5.32877 -0.437317 -0.355826 -4.64234 0.336793 0.315566 -5.30225
</DataArray>
<DataArray Name="GAMMA" NumberOfComponents="3" type="Float32" format="ascii" >
 0 0 0 0 0 0 0 0 0 0 0 0 0 0 0 0 0 0 0 0 0 0 0 0 0 0 0 0 0 0 0 0 0 0 0 0 0 0 0 0 0 0 0 0 0 0 0 0 0 0 0 0 0 0 0 0 0 0 0 0 0 0 0 0 0 0 0 0 0 0 0 0 0 0 0 0 0 0 0 0 0 0 0 0 0 0 0 0 0 0 0 0 0 0 0 0 0 0 0 0 0 0 0 0 0 0 0 0 0 0 0 0 0 0 -5.13491e-05 -7.33441e-05 -0.000684481 0 0 0 -0.0402412 -0.0216906 -0.172493 0.0728903 0.0172237 -0.454109 -0.0450217 -0.0298031 -0.273964 0.141519 0.0228414 -0.448645 -0.0986682 -0.0510605 -0.540052 0.139037 0.0546486 -1.01972 -0.097463 -0.0685356 -0.704752 0.293566 0.055452 -1.02423 -0.151215 -0.0809919 -0.964138 0.188339 0.0929197 -1.5675 -0.146459 -0.104278 -1.16228 0.426341 0.0859683 -1.57946 -0.200246 -0.111208 -1.41336 0.231442 0.130645 -2.10675 -0.193635 -0.138036 -1.62975 0.548438 0.114123 -2.12371 -0.247357 -0.141157 -1.87493 0.2711 0.16789 -2.64143 -0.239505 -0.169981 -2.10182 0.664344 0.140902 -2.66219 -0.293342 -0.170641 -2.34317 0.308448 0.204914 -3.17335 -0.28464 -0.200065 -2.57606 0.776024 0.166845 -3.19693 -0.338873 -0.19966 -2.81521 0.344009 0.242116 -3.70375 -0.329718 -0.227251 -3.05132 0.884411 0.192506 -3.72873 -0.384795 -0.228259 -3.2895 0.378221 0.280028 -4.23463 -0.376182 -0.247333 -3.52781 0.989543 0.219115 -4.25728 -0.433863 -0.259119 -3.7669 0.415578 0.31914 -4.77293 -0.427504 -0.245689 -4.01102 1.08895 0.247993 -4.78331 -0.483141 -0.305003 -4.24947 0.453682 0.303113 -5.28878 -0.409538 -0.311586 -4.44161 1.17319 0.253648 -5.35628 0 0 0 0 0 0 0 0 0 0 0 0 0 0 0 0 0 0 0 0 0 0 0 0 0 0 0 0 0 0 0 0 0 0 0 0 0 0 0 0 0 0 0 0 0 0 0 0 0 0 0 0 0 0 0 0 0 0 0 0 0 0 0 0 0 0 0 0 0 0 0 0 0 0 0 0 0 0 0 0 0 0 0 0 0 0 0 0 0 0 0 0 0 0 0 0 0 0 0 0 0 0 0 0 0 0 0 0 0 0 0 7.74945e-06 7.26451e-06 -9.01742e-05 -0.000118118 -0.000244624 -0.00151138 0 0 0 -0.0368533 -0.0257314 -0.158584 0.0805304 0.0306695 -0.451299 -0.0425648 -0.0409416 -0.312926 0.0257093 0.0413303 -0.438945 -0.0860409 -0.0692064 -0.505861 0.149338 0.0757206 -1.02019 -0.0953288 -0.0936518 -0.760587 0.0720448 0.0924043 -1.00357 -0.132151 -0.112422 -0.926969 0.202511 0.121388 -1.56968 -0.143326 -0.14215 -1.22254 0.118487 0.137742 -1.55235 -0.176217 -0.154748 -1.37671 0.24937 0.165341 -2.11076 -0.188694 -0.187993 -1.69242 0.163857 0.180869 -2.09308 -0.218913 -0.196154 -1.83963 0.293089 0.208005 -2.64729 -0.232401 -0.231831 -2.16664 0.207496 0.222676 -2.6292 -0.260738 -0.236727 -2.30959 0.334885 0.249664 -3.18128 -0.275021 -0.274217 -2.64364 0.249642 0.263779 -3.16276 -0.301939 -0.276533 -2.78375 0.375459 0.290384 -3.71366 -0.316744 -0.315772 -3.12263 0.290599 0.304428 -3.69495 -0.342401 -0.315833 -3.26082 0.415708 0.329932 -4.24476 -0.356944 -0.357865 -3.60266 0.330956 0.343972 -4.22701 -0.380782 -0.355603 -3.73837 0.454367 0.364548 -4.77034 -0.391761 -0.403843 -4.0784 0.376307 0.379153 -4.75854 -0.412453 -0.392573 -4.21529 0.493706 0.408307 -5.29078 -0.432682 -0.430123 -4.52918 0.442585 0.404344 -5.2677 0 0 0 0 0 0 0 0 0 0 0 0 0 0 0 0 0 0 0 0 0 0 0 0 0 0 0 0 0 0 0 0 0 0 0 0 0 0 0 0 0 0 0 0 0 0 0 0 0 0 0 0 0 0 0 0 0 0 0 0 0 0 0 0 0 0 0 0 0 0 0 0 0 0 0 0 0 0 0 0 0 0 0 0 0 0 0 0 0 0 0 0 0 0 0 0 0 0 0 0 0 0 0 0 0 0 0 0 0 0 0 1.24925e-05 1.17185e-05 -0.000142184 -0.00012502 -0.000283486 -0.00167159 2.66231e-06 4.95972e-06 -6.10537e-05 -0.0363977 -0.0256108 -0.154464 0.0817067 0.032712 -0.448447 -0.0433628 -0.0437595 -0.318315 0.00641393 0.046361 -0.435095 -0.0845311 -0.0713691 -0.502463 0.152001 0.0798328 -1.01851 -0.095217 -0.0978063 -0.765784 0.0451873 0.0983324 -1.00108 -0.130277 -0.116067 -0.924169 0.205886 0.126044 -1.5695 -0.1426 -0.14835 -1.22849 0.0901916 0.144586 -1.5522 -0.173745 -0.159595 -1.37431 0.253529 0.170451 -2.11118 -0.187096 -0.195964 -1.69882 0.134488 0.187846 -2.09436 -0.215646 -0.202289 -1.83743 0.297928 0.213286 -2.64799 -0.229797 -0.241558 -2.17333 0.1775 0.22943 -2.63145 -0.25649 -0.244195 -2.30733 0.340289 0.254983 -3.1818 -0.271263 -0.285625 -2.65019 0.219347 0.269924 -3.16544 -0.296565 -0.285377 -2.78107 0.381207 0.295854 -3.71348 -0.311797 -0.32852 -3.12818 0.26032 0.309568 -3.69728 -0.336008 -0.326011 -3.25669 0.420752 0.335857 -4.24285 -0.35145 -0.370332 -3.6059 0.301048 0.348362 -4.22696 -0.374793 -0.36564 -3.73296 0.459347 0.376618 -4.77005 -0.391389 -0.409337 -4.08148 0.341572 0.386396 -4.75272 -0.417574 -0.406916 -4.20568 0.496569 0.417828 -5.29419 -0.437538 -0.42739 -4.5441 0.378186 0.428185 -5.26936 0 0 0 0 0 0 0 0 0 0 0 0 0 0 0 0 0 0 0 0 0 0 0 0 0 0 0 0 0 0 0 0 0 0 0 0 0 0 0 0 0 0 0 0 0 0 0 0 0 0 0 0 0 0 0 0 0 0 0 0 0 0 0 0 0 0 0 0 0 0 0 0 0 0 0 0 0 0 0 0 0 0 0 0 0 0 0 0 0 0 0 0 0 0 0 0 0 0 0 0 0 0 0 0 0 0 0 0 0 0 0 1.48756e-05 1.39862e-05 -0.000170093 -0.000125183 -0.000293762 -0.00171337 4.46531e-06 8.28544e-06 -0.000103553 -0.0360745 -0.0253476 -0.152099 0.0814771 0.0328021 -0.444927 -0.0431429 -0.0436362 -0.317101 0.00326819 0.0466507 -0.431386 -0.0841006 -0.0716102 -0.500581 0.152175 0.079901 -1.01642 -0.0949002 -0.0981755 -0.765081 0.0421359 0.0986594 -0.998861 -0.129726 -0.116566 -0.922678 0.206298 0.126083 -1.56798 -0.142065 -0.148986 -1.22805 0.0873191 0.144765 -1.55074 -0.173003 -0.160344 -1.37315 0.254108 0.170356 -2.11005 -0.186399 -0.196913 -1.69862 0.131847 0.187878 -2.09335 -0.214735 -0.203236 -1.83651 0.298647 0.21313 -2.6471 -0.228953 -0.242738 -2.17329 0.175011 0.229315 -2.63072 -0.25546 -0.245313 -2.30661 0.341087 0.254858 -3.18112 -0.270365 -0.286952 -2.65028 0.216913 0.269741 -3.16487 -0.295565 -0.286592 -2.78047 0.381913 0.295917 -3.71297 -0.311077 -0.329781 -3.12843 0.257749 0.309554 -3.6967 -0.335389 -0.326974 -3.25639 0.42131 0.336851 -4.243 -0.351622 -0.37098 -3.60678 0.29759 0.349081 -4.22637 -0.375799 -0.366519 -3.73287 0.459146 0.378168 -4.77125 -0.393155 -0.407905 -4.08454 0.336085 0.389063 -4.75314 -0.419392 -0.405177 -4.2099 0.496864 0.419839 -5.29981 -0.438825 -0.42916 -4.55145 0.373129 0.431024 -5.27583 0 0 0 0 0 0 0 0 0 0 0 0 0 0 0 0 0 0 0 0 0 0 0 0 0 0 0 0 0 0 0 0 0 0 0 0 0 0 0 0 0 0 0 0 0 0 0 0 0 0 0 0 0 0 0 0 0 0 0 0 0 0 0 0 0 0 0 0 0 0 0 0 0 0 0 0 0 0 0 0 0 0 0 0 0 0 0 0 0 0 0 0 0 0 0 0 0 0 0 0 0 0 0 0 0 0 0 0 0 0 0 1.61432e-05 1.53303e-05 -0.000186249 -0.000124508 -0.000296369 -0.00172664 5.65056e-06 1.04666e-05 -0.000132039 -0.0357624 -0.0250529 -0.150147 0.0810882 0.0325767 -0.441434 -0.0428932 -0.0433498 -0.314952 0.00250028 0.0464588 -0.427838 -0.0838876 -0.0714452 -0.49885 0.152094 0.0797242 -1.01417 -0.0946512 -0.0980924 -0.763582 0.0415837 0.0985041 -0.99665 -0.129449 -0.11656 -0.921281 0.206353 0.125869 -1.56634 -0.141758 -0.149071 -1.22694 0.0869674 0.144529 -1.54914 -0.172651 -0.160477 -1.37205 0.25426 0.170103 -2.1088 -0.186021 -0.197114 -1.69776 0.13167 0.18754 -2.09213 -0.214326 -0.203476 -1.83567 0.298868 0.212855 -2.64617 -0.228545 -0.243027 -2.17268 0.174945 0.228918 -2.62979 -0.255046 -0.245616 -2.30602 0.341343 0.254616 -3.18051 -0.270001 -0.287262 -2.64997 0.216876 0.269363 -3.1642 -0.295254 -0.286877 -2.78023 0.382171 0.295856 -3.71286 -0.310934 -0.329978 -3.12864 0.257581 0.30935 -3.69641 -0.335446 -0.327174 -3.25669 0.421461 0.337077 -4.24374 -0.351973 -0.370776 -3.60799 0.297024 0.349372 -4.22678 -0.37641 -0.366258 -3.73452 0.459281 0.378915 -4.77377 -0.394155 -0.407541 -4.0878 0.335028 0.390036 -4.75523 -0.420355 -0.405012 -4.2135 0.497242 0.420547 -5.30441 -0.439514 -0.429468 -4.55663 0.37217 0.432151 -5.28072 0 0 0 0 0 0 0 0 0 0 0 0 0 0 0 0 0 0 0 0 0 0 0 0 0 0 0 0 0 0 0 0 0 0 0 0 0 0 0 0 0 0 0 0 0 0 0 0 0 0 0 0 0 0 0 0 0 0 0 0 0 0 0 0 0 0 0 0 0 0 0 0 0 0 0 0 0 0 0 0 0 0 0 0 0 0 0 0 0 0 0 0 0 0 0 0 0 0 0 0 0 0 0 0 0 0 0 0 0 0 0 1.70845e-05 1.65653e-05 -0.000199908 -0.000124388 -0.000296861 -0.00173267 6.55606e-06 1.22655e-05 -0.000155207 -0.0354526 -0.0247451 -0.148267 0.0807489 0.0322898 -0.438001 -0.0426211 -0.0430271 -0.31263 0.00216292 0.0461468 -0.424384 -0.0837086 -0.0712055 -0.497044 0.151982 0.0795405 -1.01192 -0.0944799 -0.0978927 -0.761923 0.0412733 0.0983251 -0.99438 -0.129294 -0.11641 -0.919793 0.206315 0.125736 -1.5647 -0.141609 -0.148952 -1.22565 0.0867573 0.144349 -1.54748 -0.172503 -0.160394 -1.37087 0.254258 0.17 -2.10757 -0.185881 -0.197054 -1.69677 0.131547 0.187351 -2.09088 -0.214185 -0.203441 -1.83476 0.298897 0.212778 -2.64527 -0.22842 -0.24301 -2.17198 0.174876 0.228728 -2.62887 -0.254926 -0.245618 -2.30541 0.341421 0.254571 -3.18 -0.269917 -0.287278 -2.64965 0.216819 0.269205 -3.16365 -0.295189 -0.286907 -2.78002 0.382331 0.295848 -3.71293 -0.31094 -0.330006 -3.12894 0.257476 0.309302 -3.6964 -0.335496 -0.327235 -3.25723 0.421788 0.337152 -4.24484 -0.352145 -0.370827 -3.60945 0.296802 0.349517 -4.22775 -0.376634 -0.366364 -3.73628 0.459831 0.379075 -4.7765 -0.394518 -0.407659 -4.0909 0.33469 0.39046 -4.7578 -0.420728 -0.40525 -4.21701 0.497863 0.420862 -5.30896 -0.43993 -0.429843 -4.56114 0.372063 0.432646 -5.28523 0 0 0 0 0 0 0 0 0 0 0 0 0 0 0 0 0 0 0 0 0 0 0 0 0 0 0 0 0 0 0 0 0 0 0 0 0 0 0 0 0 0 0 0 0 0 0 0 0 0 0 0 0 0 0 0 0 0 0 0 0 0 0 0 0 0 0 0 0 0 0 0 0 0 0 0 0 0 0 0 0 0 0 0 0 0 0 0 0 0 0 0 0 0 0 0 0 0 0 0 0 0 0 0 0 0 0 0 0 0 0 1.86565e-05 1.88129e-05 -0.000223589 -0.000125501 -0.000295536 -0.00173422 7.74824e-06 1.49071e-05 -0.000187634 -0.0351265 -0.0243971 -0.146277 0.0808785 0.0318933 -0.434678 -0.0423672 -0.0426923 -0.31042 0.00187474 0.0457707 -0.421012 -0.0835619 -0.0708536 -0.495154 0.152204 0.0793388 -1.00974 -0.0944172 -0.097586 -0.760264 0.0409156 0.0981255 -0.992123 -0.129262 -0.116096 -0.918216 0.206511 0.125662 -1.56314 -0.141643 -0.148639 -1.22437 0.0864446 0.144239 -1.54585 -0.172556 -0.160072 -1.3696 0.254376 0.170045 -2.10641 -0.185997 -0.196743 -1.69576 0.131256 0.187296 -2.08966 -0.214304 -0.203114 -1.83376 0.298979 0.212894 -2.64443 -0.228583 -0.242705 -2.17123 0.174603 0.228722 -2.62799 -0.255075 -0.245304 -2.30468 0.341527 0.254705 -3.1795 -0.270089 -0.287021 -2.64924 0.216565 0.269225 -3.16314 -0.295315 -0.286673 -2.77968 0.382599 0.295915 -3.71293 -0.311044 -0.329915 -3.12911 0.257257 0.309297 -3.69646 -0.335456 -0.327137 -3.25748 0.422407 0.336963 -4.24575 -0.352078 -0.371085 -3.61065 0.296708 0.349503 -4.22873 -0.376441 -0.366838 -3.73784 0.461008 0.378697 -4.77913 -0.394293 -0.408272 -4.09393 0.334778 0.390307 -4.76052 -0.420566 -0.405782 -4.22032 0.499143 0.420715 -5.31388 -0.440165 -0.430307 -4.56575 0.372275 0.432746 -5.28979 0 0 0 0 0 0 0 0 0 0 0 0 0 0 0 0 0 0 0 0 0 0 0 0 0 0 0 0 0 0 0 0 0 0 0 0 0 0 0 0 0 0 0 0 0 0 0 0 0 0 0 0 0 0 0 0 0 0 0 0 0 0 0 0 0 0 0 0 0 0 0 0 0 0 0 0 0 0 0 0 0 0 0 0 0 0 0 0 0 0 0 0 0 0 0 0 0 0 0 0 0 0 0 0 0 0 0 0 0 0 0 2.33891e-05 2.65884e-05 -0.000301245 -0.000130734 -0.000292125 -0.00173352 1.11854e-05 2.27068e-05 -0.000280692 -0.034662 -0.023846 -0.143471 0.0835497 0.0310603 -0.431836 -0.0423208 -0.0423367 -0.30903 0.0014371 0.0450962 -0.417833 -0.0835785 -0.0698358 -0.492669 0.155424 0.078652 -1.00775 -0.0947131 -0.0968355 -0.759137 0.0402474 0.0976506 -0.990029 -0.129482 -0.114964 -0.91613 0.209465 0.125255 -1.5618 -0.142221 -0.147763 -1.22344 0.0857082 0.143847 -1.54431 -0.173014 -0.158858 -1.36786 0.257048 0.169858 -2.10538 -0.186718 -0.195692 -1.69501 0.130501 0.187082 -2.08852 -0.214912 -0.201799 -1.83225 0.301492 0.212844 -2.64354 -0.229394 -0.24159 -2.1706 0.173802 0.228572 -2.6271 -0.255741 -0.243927 -2.30335 0.344057 0.254636 -3.1787 -0.270867 -0.285954 -2.64879 0.215766 0.269064 -3.16253 -0.295864 -0.285331 -2.77852 0.385398 0.295544 -3.71226 -0.311575 -0.329073 -3.12899 0.256575 0.308994 -3.6962 -0.335611 -0.326182 -3.25673 0.426143 0.335897 -4.24549 -0.351906 -0.371025 -3.61135 0.296238 0.348626 -4.22936 -0.375313 -0.366118 -3.7375 0.466212 0.376094 -4.78054 -0.393276 -0.409483 -4.0966 0.335033 0.389366 -4.76237 -0.419748 -0.408152 -4.22401 0.504377 0.41948 -5.32043 -0.440308 -0.429679 -4.57137 0.372742 0.431743 -5.29535 0 0 0 0 0 0 0 0 0 0 0 0 0 0 0 0 0 0 0 0 0 0 0 0 0 0 0 0 0 0 0 0 0 0 0 0 0 0 0 0 0 0 0 0 0 0 0 0 0 0 0 0 0 0 0 0 0 0 0 0 0 0 0 0 0 0 0 0 0 0 0 0 0 0 0 0 0 0 0 0 0 0 0 0 0 0 0 0 0 0 0 0 0 0 0 0 0 0 0 0 0 0 0 0 0 0 0 0 0 0 0 6.34504e-05 7.95703e-05 -0.000849084 -0.000133312 -0.000243305 -0.00153508 2.37406e-05 5.61962e-05 -0.000638291 -0.033436 -0.023048 -0.136905 0.103089 0.0263669 -0.432434 -0.0432702 -0.039769 -0.312973 -0.000275029 0.0428408 -0.415957 -0.0842967 -0.0649835 -0.48668 0.181041 0.0741791 -1.00763 -0.0978964 -0.0929939 -0.761601 0.0367861 0.0937416 -0.988217 -0.131383 -0.108217 -0.91058 0.235856 0.120611 -1.56192 -0.146083 -0.14202 -1.22617 0.0818977 0.139935 -1.54357 -0.175745 -0.150676 -1.3624 0.284459 0.165095 -2.10506 -0.191162 -0.188547 -1.69758 0.125952 0.182733 -2.08773 -0.218257 -0.192394 -1.82648 0.330026 0.207726 -2.64261 -0.234193 -0.23329 -2.173 0.168712 0.223836 -2.62609 -0.259451 -0.233489 -2.29702 0.373935 0.248967 -3.17698 -0.275789 -0.276797 -2.6509 0.210282 0.263752 -3.16112 -0.299655 -0.274074 -2.77147 0.416865 0.289101 -3.70948 -0.316254 -0.319606 -3.1306 0.250946 0.302757 -3.69433 -0.338908 -0.31433 -3.24849 0.45952 0.32773 -4.24073 -0.355375 -0.362477 -3.61229 0.291142 0.340858 -4.22689 -0.37667 -0.355228 -3.7285 0.506216 0.363237 -4.7724 -0.391494 -0.407749 -4.09987 0.33036 0.376452 -4.76232 -0.411333 -0.395118 -4.21269 0.56885 0.394657 -5.32423 -0.43907 -0.430192 -4.5812 0.370256 0.42147 -5.29859 0 0 0 0 0 0 0 0 0 0 0 0 0 0 0 0 0 0 0 0 0 0 0 0 0 0 0 0 0 0 0 0 0 0 0 0 0 0 0 0 0 0 0 0 0 0 0 0 0 0 0 0 0 0 0 0 0 0 0 0 0 0 0 0 0 0 0 0 0 0 0 0 0 0 0 0 0 0 0 0 0 0 0 0 0 0 0 0 0 0 0 0 0 0 0 0 0 0 0 0 0 0 0 0 0 0 0 0 0 0 0 0.00135955 0.000284539 -0.00411824 -0.000734668 -0.000288922 -0.00411803 1.98715e-05 0.000129943 -0.00155521 -0.0250846 -0.0128007 -0.102429 0.228869 0.00978409 -0.461386 -0.0628846 -0.0317405 -0.337403 -0.0102268 0.0297679 -0.41797 -0.0794334 -0.0370207 -0.423896 0.41053 0.0389535 -1.04214 -0.124604 -0.0699385 -0.795489 0.0244951 0.0756728 -0.991692 -0.130018 -0.068153 -0.845004 0.550123 0.0708242 -1.60015 -0.177177 -0.103675 -1.26173 0.0650287 0.114729 -1.54658 -0.177181 -0.101078 -1.29724 0.674828 0.10037 -2.14814 -0.226275 -0.136292 -1.73457 0.105633 0.151393 -2.09049 -0.222414 -0.133677 -1.7626 0.792164 0.128327 -2.69039 -0.273167 -0.167832 -2.21116 0.145052 0.186704 -2.62866 -0.266414 -0.165585 -2.2345 0.905016 0.155072 -3.22943 -0.318713 -0.198408 -2.69018 0.183441 0.221267 -3.16359 -0.309682 -0.196829 -2.71009 1.0148 0.181012 -3.76667 -0.363509 -0.227509 -3.17075 0.220964 0.255457 -3.69643 -0.352713 -0.227533 -3.18794 1.1222 0.206784 -4.30329 -0.408314 -0.252994 -3.65166 0.257854 0.289588 -4.22718 -0.396756 -0.259088 -3.66628 1.22588 0.232543 -4.83896 -0.454046 -0.266784 -4.12816 0.296337 0.323265 -4.75298 -0.438693 -0.301971 -4.14037 1.30739 0.226818 -5.32877 -0.437317 -0.355826 -4.64234 0.336794 0.315565 -5.30225
</DataArray>
<DataArray Name="STRESS" NumberOfComponents="3" type="Float32" format="ascii" >
 0.000829792 -0.0155529 -0.0600344 0.0798489 0.0107172 -0.27603 -0.0239116 -0.0386429 -0.425107 -0.00753977 0.00541044 -0.251269 -0.0402096 -0.0287671 -0.54661 0.116435 0.0405254 -0.802425 -0.0639255 -0.0669689 -0.908763 0.0882052 0.0265705 -0.784564 -0.0801985 -0.0528918 -1.03229 0.150707 0.0719462 -1.33079 -0.102469 -0.094664 -1.393 0.185478 0.0474191 -1.3175 -0.119366 -0.0797658 -1.51904 0.184986 0.102825 -1.85987 -0.140387 -0.122704 -1.87762 0.283234 0.0678647 -1.85052 -0.158021 -0.107268 -2.00612 0.21993 0.132927 -2.38901 -0.177705 -0.151611 -2.36264 0.381279 0.0879164 -2.38396 -0.195867 -0.135115 -2.49337 0.255865 0.161695 -2.91753 -0.213759 -0.183102 -2.84794 0.479886 0.107203 -2.91819 -0.231671 -0.163303 -2.9805 0.292436 0.187986 -3.44272 -0.246117 -0.225377 -3.33169 0.580361 0.124055 -3.45425 -0.261102 -0.187064 -3.4653 0.323758 0.213167 -3.95682 -0.271627 -0.303772 -3.80753 0.687548 0.13785 -3.99177 -0.295155 -0.197251 -3.94665 0.338732 0.293504 -4.47183 -0.344642 -0.368322 -4.29038 0.793053 0.161438 -4.50905 -0.418235 -0.227897 -4.42546 0.390509 0.321004 -4.97543 -0.373552 -0.533561 -4.97943 1.14766 0.163201 -4.9247 -1.18674 -0.63967 -5.08694 0.870052 0.205589 -5.42045 -0.858829 -0.568521 -5.22611 1.67992 0.271142 -5.32572 -1.00266 -0.518874 -5.48798 0.817145 0.32118 -5.99311 -0.784045 -0.551337 -5.6694 1.69713 0.320573 -5.92115 -0.929279 -0.497729 -5.92503 0.786425 0.387993 -6.54521 -0.772774 -0.550213 -6.13263 1.75111 0.353096 -6.48729 -0.904043 -0.502069 -6.38085 0.778555 0.439483 -7.08698 -0.784561 -0.559286 -6.60335 1.81778 0.378256 -7.03894 -0.903226 -0.515438 -6.84634 0.782411 0.484541 -7.62331 -0.8065 -0.572389 -7.07759 1.89227 0.401335 -7.58277 -0.916035 -0.532871 -7.31716 0.792798 0.526687 -8.15641 -0.834607 -0.586621 -7.55342 1.97144 0.423859 -8.12161 -0.937818 -0.552551 -7.79099 0.806925 0.56792 -8.6877 -0.867694 -0.59804 -8.02993 2.05326 0.446923 -8.65667 -0.966992 -0.573616 -8.26654 0.823429 0.609652 -9.21926 -0.907191 -0.596463 -8.50757 2.13559 0.472886 -9.18791 -1.00718 -0.601523 -8.74456 0.849622 0.652459 -9.75793 -0.958414 -0.550806 -8.99223 2.21203 0.503757 -9.71653 -1.04906 -0.662264 -9.22702 0.881455 0.588916 -10.2755 -0.869023 -0.661173 -9.42492 2.25484 0.487506 -10.2947 0.00659898 -0.0225209 -0.0590397 0.0859618 0.00732045 -0.275601 -0.0143998 -0.0575687 -0.425073 -0.0358941 0.00877443 -0.251992 -0.0326093 -0.0378183 -0.544995 0.124236 0.0413973 -0.801321 -0.052127 -0.0965647 -0.909621 0.00547276 0.0425503 -0.783289 -0.0684987 -0.0723174 -1.02987 0.160577 0.0762424 -1.32895 -0.0877395 -0.13463 -1.39363 0.0444245 0.0769692 -1.31191 -0.103825 -0.109214 -1.51435 0.196537 0.111162 -1.85626 -0.122903 -0.172818 -1.87704 0.083252 0.111269 -1.83991 -0.138901 -0.146305 -1.99834 0.232026 0.146245 -2.38268 -0.157856 -0.211312 -2.35938 0.122607 0.145109 -2.36719 -0.173952 -0.183094 -2.48148 0.266373 0.182216 -2.9078 -0.193152 -0.249483 -2.83993 0.162562 0.17856 -2.89298 -0.210008 -0.218671 -2.96324 0.298264 0.220818 -3.43206 -0.231015 -0.284273 -3.31928 0.20183 0.213378 -3.41584 -0.249839 -0.251258 -3.44497 0.327713 0.266908 -3.95982 -0.275064 -0.31423 -3.80204 0.231233 0.254867 -3.93701 -0.292441 -0.288488 -3.92581 0.343041 0.297491 -4.47588 -0.307095 -0.422407 -4.27749 0.248059 0.309573 -4.47649 -0.305462 -0.265179 -4.44966 0.428218 0.401422 -4.98284 -0.387762 -0.80306 -4.96161 0.263867 0.395595 -4.98861 -1.17615 -0.8212 -5.0611 0.964716 0.367406 -5.40634 -0.716697 -0.689367 -5.26899 0.317666 0.510681 -5.42365 -0.926529 -0.745247 -5.44735 0.876369 0.444357 -5.98685 -0.717226 -0.704609 -5.72244 0.42977 0.551221 -5.98662 -0.838804 -0.713578 -5.88375 0.843964 0.505881 -6.54164 -0.72555 -0.719594 -6.18881 0.498824 0.57989 -6.53531 -0.811618 -0.712737 -6.34083 0.837137 0.555051 -7.08583 -0.742744 -0.739985 -6.66174 0.55396 0.611474 -7.07617 -0.810145 -0.725919 -6.80802 0.84412 0.599071 -7.62441 -0.765667 -0.763789 -7.13819 0.600779 0.644732 -7.61253 -0.821952 -0.74626 -7.28078 0.858968 0.640379 -8.15987 -0.792392 -0.790077 -7.61688 0.643004 0.679419 -8.14636 -0.841354 -0.770561 -7.75693 0.878919 0.679765 -8.69336 -0.821339 -0.818818 -8.09718 0.682567 0.715049 -8.67882 -0.864766 -0.797667 -8.2355 0.903478 0.717057 -9.22533 -0.849913 -0.852106 -8.57824 0.721192 0.749556 -9.21114 -0.887615 -0.828921 -8.71427 0.928843 0.745229 -9.75181 -0.869779 -0.896605 -9.05478 0.770468 0.776296 -9.74286 -0.899471 -0.856117 -9.19263 0.958577 0.792766 -10.2725 -0.908191 -0.902819 -9.50665 0.861325 0.786903 -10.2516 0.0103767 -0.0261338 -0.0588137 0.0884564 0.00504805 -0.275116 -0.0106563 -0.0614334 -0.424467 -0.033051 0.00479535 -0.251526 -0.0289373 -0.0415442 -0.544066 0.126529 0.0396098 -0.80018 -0.0487866 -0.100513 -0.908496 0.00640736 0.0394932 -0.781989 -0.0652962 -0.0758767 -1.02798 0.162504 0.0755599 -1.32721 -0.085044 -0.138272 -1.39211 0.0429851 0.0751311 -1.3099 -0.101413 -0.11259 -1.51165 0.197865 0.111999 -1.85434 -0.121316 -0.175487 -1.87541 0.0790493 0.111097 -1.83711 -0.137924 -0.149319 -1.99508 0.232684 0.149084 -2.3814 -0.158214 -0.211893 -2.35855 0.114509 0.147632 -2.36378 -0.175302 -0.185511 -2.47836 0.266875 0.187056 -2.90873 -0.196238 -0.247108 -2.84208 0.148696 0.185379 -2.89012 -0.213827 -0.220828 -2.96204 0.300635 0.226087 -3.43699 -0.235333 -0.282352 -3.32691 0.180597 0.224941 -3.41725 -0.252322 -0.255636 -3.44635 0.332924 0.264345 -3.96503 -0.272787 -0.326915 -3.81325 0.211054 0.266165 -3.94771 -0.283147 -0.286127 -3.93366 0.354671 0.303041 -4.48343 -0.296662 -0.455303 -4.28867 0.240598 0.307737 -4.49056 -0.290656 -0.290648 -4.43842 0.437733 0.410612 -4.9821 -0.370909 -0.841044 -4.95927 0.217571 0.405322 -4.98947 -1.19087 -0.837943 -5.05382 0.984054 0.393975 -5.40099 -0.718202 -0.724773 -5.27214 0.0799089 0.577596 -5.42069 -0.915686 -0.773108 -5.44295 0.892947 0.468986 -5.98337 -0.712033 -0.731396 -5.72653 0.270223 0.588033 -5.98654 -0.828914 -0.738501 -5.8802 0.857938 0.525234 -6.54018 -0.718961 -0.747952 -6.19378 0.379848 0.608932 -6.5372 -0.801259 -0.736004 -6.33787 0.850855 0.57204 -7.08521 -0.734294 -0.769095 -6.66732 0.454586 0.634944 -7.07922 -0.798699 -0.749228 -6.80537 0.857808 0.614104 -7.62423 -0.755388 -0.794047 -7.14417 0.513748 0.66405 -7.61633 -0.80906 -0.770279 -7.27814 0.87266 0.653896 -8.15963 -0.780241 -0.821551 -7.6228 0.564777 0.695005 -8.15041 -0.826855 -0.795661 -7.75392 0.892329 0.692534 -8.6925 -0.807573 -0.850886 -8.10218 0.611315 0.726965 -8.68239 -0.849236 -0.82397 -8.23105 0.914605 0.730066 -9.22284 -0.836352 -0.881286 -8.58103 0.6561 0.759217 -9.21219 -0.874346 -0.852993 -8.70854 0.938982 0.769871 -9.75078 -0.868567 -0.908397 -9.05758 0.699863 0.791705 -9.73806 -0.911647 -0.888379 -9.18183 0.963794 0.810963 -10.2755 -0.916806 -0.895543 -9.52161 0.73599 0.833293 -10.2547 0.0114386 -0.0270926 -0.0588151 0.0888914 0.00457105 -0.274916 -0.00957685 -0.0623987 -0.424056 -0.0316951 0.00328721 -0.251272 -0.0279259 -0.0425474 -0.543755 0.126886 0.0391892 -0.799726 -0.0478751 -0.101175 -0.907832 0.00746057 0.0381811 -0.781258 -0.0645257 -0.076721 -1.02741 0.16282 0.075283 -1.32671 -0.0844604 -0.138565 -1.3915 0.0434667 0.0742728 -1.30892 -0.100995 -0.113242 -1.51106 0.198255 0.111848 -1.85413 -0.121099 -0.175418 -1.87528 0.0787683 0.110868 -1.83631 -0.137795 -0.149862 -1.99486 0.233405 0.148776 -2.38183 -0.158126 -0.211837 -2.35934 0.113559 0.147963 -2.36378 -0.175001 -0.186217 -2.47893 0.268338 0.186026 -2.90991 -0.195507 -0.248102 -2.84386 0.147834 0.18557 -2.89164 -0.212346 -0.22234 -2.96338 0.302994 0.223305 -3.4382 -0.232743 -0.285675 -3.32881 0.18186 0.223509 -3.4203 -0.248399 -0.257499 -3.44837 0.336479 0.261117 -3.96589 -0.267995 -0.333561 -3.81411 0.215324 0.261684 -3.95081 -0.27755 -0.291732 -3.93293 0.358253 0.298924 -4.48135 -0.290888 -0.461008 -4.28582 0.244605 0.302571 -4.49049 -0.283621 -0.292855 -4.43507 0.435728 0.409676 -4.98225 -0.362306 -0.85021 -4.95885 0.215166 0.399242 -4.98981 -1.19781 -0.841637 -5.05026 0.988309 0.397886 -5.39691 -0.717133 -0.725332 -5.27094 0.0410376 0.585776 -5.41676 -0.914089 -0.778331 -5.44081 0.895466 0.470173 -5.98105 -0.710217 -0.734729 -5.72574 0.25245 0.591101 -5.9845 -0.826518 -0.742669 -5.87861 0.860272 0.52577 -6.53852 -0.716461 -0.751363 -6.19329 0.368026 0.610144 -6.53595 -0.798355 -0.739937 -6.33667 0.853107 0.571928 -7.08398 -0.731615 -0.772882 -6.66707 0.445821 0.635285 -7.07839 -0.795611 -0.753006 -6.80443 0.860058 0.613782 -7.62326 -0.752618 -0.79793 -7.14409 0.506644 0.66385 -7.61576 -0.805981 -0.773965 -7.2774 0.874813 0.653654 -8.15888 -0.777635 -0.825341 -7.62285 0.558582 0.694622 -8.14998 -0.824177 -0.799155 -7.75329 0.894047 0.692733 -8.69194 -0.805663 -0.854106 -8.10239 0.605339 0.727005 -8.68193 -0.847717 -0.826446 -8.23072 0.915793 0.732207 -9.22292 -0.836639 -0.882699 -8.58187 0.648621 0.76085 -9.21171 -0.876695 -0.855044 -8.70833 0.938446 0.772936 -9.75193 -0.872129 -0.904849 -9.06067 0.688596 0.79714 -9.73858 -0.915122 -0.884103 -9.18609 0.963864 0.814445 -10.2811 -0.918719 -0.898485 -9.52887 0.725722 0.838326 -10.2613 0.0107424 -0.0263842 -0.0588581 0.0878846 0.00561647 -0.274807 -0.0102129 -0.0617937 -0.423697 -0.0318924 0.00355848 -0.251194 -0.0285153 -0.0419425 -0.5435 0.126009 0.0400723 -0.799342 -0.048381 -0.100651 -0.907303 0.00723859 0.0383817 -0.780936 -0.0649334 -0.0762355 -1.02696 0.162244 0.0758457 -1.32615 -0.0847265 -0.138271 -1.39094 0.0432972 0.0743431 -1.30853 -0.101077 -0.112994 -1.51056 0.198155 0.111905 -1.85352 -0.120953 -0.175574 -1.87485 0.0787991 0.11067 -1.83605 -0.13735 -0.150002 -1.99445 0.23393 0.148153 -2.38127 -0.157347 -0.212712 -2.35908 0.114064 0.147257 -2.36383 -0.173817 -0.186921 -2.47866 0.269502 0.18461 -2.90935 -0.193914 -0.249867 -2.84362 0.149172 0.184077 -2.89196 -0.210319 -0.22358 -2.96318 0.304658 0.22138 -3.4375 -0.2304 -0.288285 -3.32824 0.184116 0.22109 -3.42052 -0.245835 -0.25949 -3.44767 0.338129 0.258929 -3.96451 -0.265335 -0.3361 -3.81259 0.218097 0.258716 -3.95016 -0.275007 -0.293247 -3.93157 0.359345 0.297429 -4.47933 -0.288774 -0.46254 -4.28315 0.24714 0.299824 -4.48829 -0.280813 -0.293332 -4.43179 0.431853 0.410108 -4.98242 -0.357592 -0.851182 -4.95895 0.213546 0.395554 -4.99002 -1.20227 -0.842231 -5.04767 0.990683 0.398001 -5.39316 -0.717548 -0.725185 -5.26874 0.0316342 0.587809 -5.41312 -0.914626 -0.778966 -5.43896 0.896617 0.469987 -5.97872 -0.709556 -0.735353 -5.72422 0.249604 0.591265 -5.98232 -0.825804 -0.743576 -5.87718 0.861176 0.525289 -6.53684 -0.715431 -0.752341 -6.19216 0.366834 0.609634 -6.53439 -0.797227 -0.741013 -6.33557 0.853969 0.571316 -7.0827 -0.730405 -0.773962 -6.66621 0.445409 0.634403 -7.07721 -0.794359 -0.754146 -6.80359 0.860893 0.61313 -7.6223 -0.751422 -0.799037 -7.14347 0.506574 0.662858 -7.61485 -0.804815 -0.775056 -7.27681 0.875571 0.653109 -8.15825 -0.776646 -0.826297 -7.62253 0.55856 0.693738 -8.14934 -0.823356 -0.799995 -7.75305 0.894663 0.6926 -8.69181 -0.805261 -0.854583 -8.10259 0.604974 0.726562 -8.68165 -0.847811 -0.826904 -8.23102 0.916034 0.732627 -9.22365 -0.837311 -0.882041 -8.58309 0.647355 0.761445 -9.21213 -0.877896 -0.85422 -8.70998 0.938467 0.774252 -9.75444 -0.873964 -0.903646 -9.06393 0.686276 0.798956 -9.74068 -0.916798 -0.883334 -9.18968 0.964191 0.815474 -10.2857 -0.919615 -0.898597 -9.53405 0.723533 0.84014 -10.2662 0.00833379 -0.0240875 -0.058941 0.0851884 0.00840092 -0.274627 -0.0125118 -0.0596507 -0.423055 -0.0334496 0.00543957 -0.251103 -0.0307164 -0.0397732 -0.542977 0.12348 0.0426142 -0.798581 -0.0503951 -0.0987355 -0.906222 0.00577807 0.0400172 -0.780397 -0.0667455 -0.0742867 -1.02598 0.160098 0.0779039 -1.32483 -0.0862436 -0.136815 -1.38948 0.0421395 0.0755486 -1.30763 -0.102272 -0.11145 -1.50917 0.196637 0.11324 -1.8517 -0.121754 -0.174825 -1.87309 0.0781328 0.111237 -1.83489 -0.137724 -0.149043 -1.99275 0.233253 0.148574 -2.37907 -0.157277 -0.212847 -2.35717 0.114046 0.147031 -2.36252 -0.173287 -0.186648 -2.47679 0.269729 0.184116 -2.90699 -0.193011 -0.25086 -2.84169 0.149828 0.18306 -2.89058 -0.209079 -0.223992 -2.96128 0.305527 0.220253 -3.43522 -0.229009 -0.289712 -3.32639 0.185255 0.219543 -3.41905 -0.244414 -0.260133 -3.4459 0.339002 0.25788 -3.96251 -0.264138 -0.337295 -3.81076 0.219282 0.257155 -3.94851 -0.274173 -0.293458 -3.92981 0.35916 0.297409 -4.47744 -0.28853 -0.462354 -4.28074 0.247742 0.299029 -4.48604 -0.280315 -0.291715 -4.42923 0.425821 0.41288 -4.98258 -0.356016 -0.849658 -4.95915 0.210788 0.394356 -4.99015 -1.20638 -0.842028 -5.04525 0.993585 0.397313 -5.38944 -0.717968 -0.724807 -5.26637 0.0275709 0.588235 -5.40964 -0.915666 -0.778897 -5.43704 0.897605 0.469765 -5.97638 -0.709606 -0.735238 -5.72254 0.248212 0.591314 -5.98007 -0.825935 -0.743628 -5.87566 0.861699 0.525153 -6.53516 -0.715278 -0.752371 -6.19087 0.366249 0.609374 -6.53274 -0.797082 -0.741132 -6.33437 0.854309 0.571201 -7.08145 -0.730174 -0.774061 -6.66521 0.44518 0.634034 -7.07596 -0.794126 -0.75429 -6.80267 0.861163 0.613042 -7.6214 -0.751183 -0.799163 -7.14276 0.506489 0.662462 -7.61394 -0.804584 -0.775204 -7.27619 0.875855 0.653058 -8.15773 -0.776466 -0.826409 -7.62221 0.558473 0.693408 -8.14879 -0.823212 -0.800117 -7.75284 0.895027 0.692573 -8.69187 -0.805229 -0.854603 -8.1029 0.604728 0.72645 -8.68165 -0.847853 -0.826975 -8.23155 0.916615 0.732686 -9.22474 -0.837524 -0.881957 -8.58455 0.64679 0.761668 -9.21311 -0.878183 -0.854237 -8.71174 0.939315 0.774352 -9.75715 -0.874408 -0.903531 -9.06703 0.685394 0.799602 -9.74326 -0.917199 -0.883455 -9.19319 0.964994 0.815745 -10.2902 -0.920011 -0.898918 -9.53856 0.723025 0.840756 -10.2707 0.00395461 -0.0200273 -0.059082 0.0805824 0.0132123 -0.274446 -0.0167846 -0.0556376 -0.422161 -0.0366638 0.00929975 -0.250947 -0.0349426 -0.0358179 -0.542223 0.118867 0.0473336 -0.797648 -0.0544713 -0.0947799 -0.904595 0.0026284 0.0436294 -0.779492 -0.0707005 -0.0704586 -1.0245 0.155559 0.0823656 -1.32304 -0.0899346 -0.133108 -1.38703 0.0392723 0.0787393 -1.30597 -0.105713 -0.1079 -1.50689 0.192432 0.117163 -1.84888 -0.124761 -0.171698 -1.86979 0.0757601 0.113719 -1.83248 -0.140291 -0.145995 -1.98959 0.229875 0.151507 -2.37518 -0.159217 -0.210766 -2.35319 0.11239 0.148482 -2.35945 -0.174579 -0.184399 -2.47291 0.267841 0.185552 -2.90228 -0.193577 -0.250248 -2.8375 0.149032 0.183274 -2.88717 -0.208916 -0.222729 -2.95713 0.305468 0.220048 -3.43052 -0.228355 -0.290534 -3.32273 0.185246 0.218753 -3.4158 -0.243343 -0.259918 -3.44238 0.340115 0.256863 -3.95902 -0.263219 -0.338521 -3.80839 0.219564 0.256102 -3.946 -0.273646 -0.293109 -3.92767 0.359346 0.297679 -4.47577 -0.288964 -0.46276 -4.27946 0.247266 0.298871 -4.48443 -0.281865 -0.288045 -4.4278 0.415766 0.419252 -4.98276 -0.3589 -0.845157 -4.95943 0.206068 0.396459 -4.9902 -1.21095 -0.841063 -5.04273 1.00204 0.395139 -5.38541 -0.718469 -0.723981 -5.26414 0.0240738 0.587749 -5.40628 -0.917218 -0.777725 -5.43506 0.900498 0.469399 -5.97401 -0.710474 -0.734319 -5.72086 0.246528 0.591235 -5.97783 -0.826919 -0.742694 -5.87405 0.863163 0.525236 -6.53351 -0.716049 -0.751416 -6.18959 0.365222 0.609401 -6.53113 -0.797907 -0.74018 -6.33309 0.855029 0.571568 -7.08024 -0.730954 -0.773185 -6.6642 0.444381 0.634109 -7.07476 -0.794883 -0.753379 -6.80166 0.861576 0.613501 -7.62053 -0.751897 -0.79835 -7.14202 0.50581 0.66259 -7.61307 -0.805226 -0.774382 -7.27547 0.876208 0.653461 -8.15721 -0.77704 -0.825754 -7.62181 0.557874 0.693528 -8.14829 -0.823629 -0.799528 -7.7525 0.895651 0.692728 -8.69185 -0.805472 -0.85434 -8.10307 0.604208 0.726433 -8.68172 -0.847714 -0.826691 -8.23181 0.917853 0.732189 -9.22562 -0.837205 -0.882403 -8.58575 0.646505 0.761543 -9.2141 -0.877524 -0.855138 -8.7133 0.941453 0.773362 -9.75976 -0.873554 -0.904523 -9.07008 0.685375 0.799057 -9.746 -0.916458 -0.884242 -9.19652 0.96704 0.815094 -10.2951 -0.920019 -0.899414 -9.54318 0.723136 0.8406 -10.2753 -0.00189027 -0.0146869 -0.0592161 0.0750397 0.0192715 -0.274544 -0.0226301 -0.050133 -0.421552 -0.0415627 0.0149924 -0.250885 -0.0408918 -0.0305188 -0.541691 0.113004 0.0536937 -0.79747 -0.060511 -0.0888514 -0.903429 -0.00237177 0.0493596 -0.778794 -0.0769325 -0.0649985 -1.02347 0.149066 0.089225 -1.32238 -0.0962852 -0.126559 -1.38497 0.0341988 0.0845633 -1.30446 -0.112297 -0.102152 -1.50505 0.185027 0.124672 -1.8473 -0.131386 -0.164514 -1.86633 0.0707157 0.11949 -1.8298 -0.14704 -0.139973 -1.98646 0.221561 0.159459 -2.37189 -0.165668 -0.20344 -2.34775 0.107692 0.153715 -2.35523 -0.180704 -0.178434 -2.46789 0.259643 0.19282 -2.89634 -0.198648 -0.244333 -2.83007 0.145264 0.186967 -2.88138 -0.212772 -0.217685 -2.95007 0.300446 0.224236 -3.42183 -0.230275 -0.288488 -3.31485 0.182988 0.219673 -3.40942 -0.243287 -0.256602 -3.43442 0.341511 0.256024 -3.95075 -0.262135 -0.340102 -3.80281 0.218907 0.255116 -3.94065 -0.271687 -0.292801 -3.9227 0.360263 0.297446 -4.47313 -0.288271 -0.468431 -4.27937 0.246839 0.297738 -4.48276 -0.28703 -0.283424 -4.42981 0.386896 0.439818 -4.98312 -0.374034 -0.835779 -4.95966 0.198854 0.403682 -4.99015 -1.21748 -0.837576 -5.03933 1.04078 0.386921 -5.37941 -0.720722 -0.720993 -5.26278 0.0185843 0.583174 -5.40332 -0.921623 -0.770081 -5.43268 0.920873 0.466007 -5.97081 -0.713627 -0.729618 -5.71981 0.242935 0.589424 -5.97586 -0.829933 -0.736875 -5.87207 0.875994 0.523822 -6.53156 -0.719415 -0.74745 -6.18868 0.362394 0.608219 -6.52967 -0.800826 -0.735302 -6.33141 0.864262 0.571105 -7.07882 -0.734034 -0.76931 -6.66348 0.441999 0.633633 -7.07368 -0.797624 -0.748957 -6.8002 0.868975 0.613472 -7.61935 -0.75472 -0.794847 -7.14141 0.503605 0.662307 -7.61223 -0.807652 -0.770343 -7.27418 0.88281 0.653367 -8.15619 -0.779368 -0.822776 -7.62138 0.555886 0.693199 -8.14773 -0.825388 -0.796003 -7.75139 0.902278 0.691916 -8.691 -0.806868 -0.852184 -8.10297 0.602633 0.725753 -8.68151 -0.848231 -0.824399 -8.23111 0.925982 0.729885 -9.2252 -0.836704 -0.882162 -8.58648 0.645435 0.759575 -9.2148 -0.874952 -0.853516 -8.71308 0.951923 0.767918 -9.76103 -0.870992 -0.906886 -9.07276 0.685764 0.796977 -9.74789 -0.914238 -0.888981 -9.20017 0.976585 0.812207 -10.3015 -0.919736 -0.897532 -9.54888 0.723677 0.838229 -10.2809 -0.00733781 -0.00975836 -0.0592115 0.0719666 0.0238559 -0.275089 -0.0281043 -0.044594 -0.422268 -0.0470461 0.020594 -0.25131 -0.0465786 -0.0253806 -0.541794 0.111289 0.0580487 -0.798888 -0.0664139 -0.0821756 -0.904965 -0.00831806 0.0550572 -0.779549 -0.0833386 -0.0593513 -1.02399 0.148267 0.093933 -1.32491 -0.103276 -0.11809 -1.38719 0.0274172 0.0907014 -1.30542 -0.120195 -0.0953294 -1.5059 0.184065 0.130753 -1.85084 -0.140326 -0.153235 -1.86868 0.0626629 0.12671 -1.83058 -0.15739 -0.131253 -1.98722 0.218759 0.168348 -2.37607 -0.177583 -0.187783 -2.34886 0.0980225 0.162694 -2.35483 -0.194577 -0.167155 -2.46746 0.252195 0.20645 -2.89984 -0.214317 -0.222594 -2.82697 0.134195 0.19782 -2.8778 -0.230222 -0.203728 -2.946 0.28522 0.243331 -3.42058 -0.24773 -0.263141 -3.30319 0.172361 0.230019 -3.40022 -0.258751 -0.241763 -3.42289 0.322898 0.273767 -3.9361 -0.269783 -0.334387 -3.78344 0.212648 0.255934 -3.92825 -0.2669 -0.278777 -3.90249 0.373297 0.291283 -4.44902 -0.274008 -0.522276 -4.27774 0.246423 0.287655 -4.48122 -0.287055 -0.280879 -4.43573 0.372369 0.466971 -4.98299 -0.430851 -0.786336 -4.9612 0.18557 0.439263 -4.98926 -1.22857 -0.846871 -5.03042 1.2774 0.326721 -5.35842 -0.728532 -0.669584 -5.26947 -0.00357228 0.556447 -5.40275 -0.940163 -0.724762 -5.42794 1.07104 0.438845 -5.96116 -0.735606 -0.698768 -5.72277 0.222429 0.566812 -5.97529 -0.846585 -0.697316 -5.86747 0.985505 0.503961 -6.52635 -0.737701 -0.717181 -6.19202 0.346456 0.591974 -6.52983 -0.81612 -0.699708 -6.3267 0.956027 0.55486 -7.07483 -0.750716 -0.740446 -6.6666 0.426751 0.619138 -7.07366 -0.811984 -0.715763 -6.79506 0.951085 0.598634 -7.61561 -0.769972 -0.767004 -7.14432 0.489023 0.648804 -7.61191 -0.820976 -0.738823 -7.2684 0.959522 0.638854 -8.15217 -0.793167 -0.796067 -7.62396 0.541945 0.679751 -8.14694 -0.837383 -0.765898 -7.74484 0.976147 0.676969 -8.68627 -0.81877 -0.827449 -8.10501 0.589625 0.711359 -8.68023 -0.857927 -0.795709 -8.22337 0.998931 0.712437 -9.21873 -0.844862 -0.861747 -8.58778 0.63457 0.742931 -9.21289 -0.879376 -0.829318 -8.70457 1.03433 0.742185 -9.75123 -0.866688 -0.902674 -9.07628 0.676253 0.770604 -9.74855 -0.897318 -0.861946 -9.18993 1.10081 0.763724 -10.3032 -0.916136 -0.897613 -9.55884 0.718671 0.818079 -10.2846 -0.00749662 -0.00665704 -0.0576683 0.110671 0.0121996 -0.280167 -0.0332851 -0.029143 -0.425677 -0.0519811 0.0206749 -0.252096 -0.048027 -0.0200464 -0.540808 0.205607 0.0339398 -0.81028 -0.0749625 -0.0569347 -0.91157 -0.0152183 0.0511901 -0.782133 -0.0877649 -0.0437232 -1.02426 0.30215 0.055303 -1.34111 -0.115554 -0.0830739 -1.39712 0.017694 0.0839811 -1.31032 -0.127318 -0.0697455 -1.50696 0.399066 0.0767301 -1.87248 -0.156329 -0.108451 -1.88287 0.0493187 0.117382 -1.83793 -0.167386 -0.0958543 -1.98973 0.495922 0.0985526 -2.40453 -0.197858 -0.132725 -2.36902 0.0799614 0.151753 -2.3655 -0.208452 -0.121626 -2.47271 0.592495 0.121178 -2.93756 -0.240728 -0.154559 -2.8554 0.109334 0.187647 -2.89281 -0.251283 -0.1471 -2.95569 0.688201 0.145427 -3.47203 -0.285906 -0.169939 -3.34082 0.137124 0.225732 -3.41846 -0.296346 -0.173945 -3.43715 0.78153 0.170918 -4.00603 -0.330968 -0.17546 -3.82195 0.163427 0.26424 -3.93968 -0.329722 -0.213308 -3.91117 0.871556 0.169434 -4.50764 -0.32832 -0.264361 -4.27526 0.193474 0.280434 -4.46859 -0.213173 -0.221035 -4.37059 1.60697 0.336322 -4.86771 -0.884664 -0.347911 -4.9588 0.0637929 0.417153 -4.99265 -1.22707 -0.626173 -5.01054 2.56907 0.109827 -5.17909 -0.984785 -0.497063 -5.28379 -0.132393 0.385365 -5.4109 -1.00652 -0.4691 -5.37131 2.30733 0.218934 -5.8572 -0.901551 -0.50603 -5.75564 0.147798 0.456594 -5.98367 -0.893615 -0.468415 -5.8077 2.21967 0.285766 -6.45641 -0.874696 -0.511825 -6.22897 0.274881 0.484969 -6.53752 -0.855916 -0.488281 -6.26661 2.20738 0.328312 -7.02663 -0.874777 -0.526903 -6.70583 0.357792 0.512789 -7.08077 -0.849949 -0.510844 -6.73572 2.23268 0.361684 -7.58275 -0.887646 -0.545365 -7.18509 0.420401 0.541121 -7.61858 -0.859635 -0.534293 -7.21005 2.27873 0.390454 -8.13134 -0.908215 -0.565389 -7.66601 0.472769 0.570257 -8.15331 -0.878431 -0.558316 -7.68733 2.33735 0.416917 -8.6756 -0.934127 -0.584641 -8.14804 0.519231 0.600283 -8.68603 -0.903529 -0.582862 -8.16641 2.40374 0.442932 -9.21765 -0.964991 -0.597915 -8.63017 0.562209 0.631401 -9.2167 -0.935598 -0.610962 -8.64553 2.47201 0.468929 -9.75786 -1.00176 -0.588604 -9.10794 0.607415 0.662608 -9.74237 -0.96629 -0.665138 -9.11982 2.51552 0.436417 -10.253 -0.906599 -0.737661 -9.624 0.653789 0.612579 -10.2928
</DataArray>

      </CellData>
    </Piece>
  </UnstructuredGrid>
</VTKFile>