<?xml version="1.0"?>

<VTKFile type="UnstructuredGrid" >
  <UnstructuredGrid>
    <Piece NumberOfPoints="15131"  NumberOfCells="14850" >
      <Cells><DataArray Name="connectivity" type="Int32" format="ascii" >
 494 647 299 13 647 681 298 299 681 715 297 298 715 749 296 297 749 783 295 296 783 817 294 295 817 851 293 294 851 885 292 293 885 919 291 292 919 953 290 291 953 987 289 290 987 1021 288 289 1021 1055 287 288 1055 1089 286 287 1089 495 14 286 493 648 647 494 648 682 681 647 682 716 715 681 716 750 749 715 750 784 783 749 784 818 817 783 818 852 851 817 852 886 885 851 886 920 919 885 920 954 953 919 954 988 987 953 988 1022 1021 987 1022 1056 1055 1021 1056 1090 1089 1055 1090 496 495 1089 492 649 648 493 649 683 682 648 683 717 716 682 717 751 750 716 751 785 784 750 785 819 818 784 819 853 852 818 853 887 886 852 887 921 920 886 921 955 954 920 955 989 988 954 989 1023 1022 988 1023 1057 1056 1022 1057 1091 1090 1056 1091 497 496 1090 491 650 649 492 650 684 683 649 684 718 717 683 718 752 751 717 752 786 785 751 786 820 819 785 820 854 853 819 854 888 887 853 888 922 921 887 922 956 955 921 956 990 989 955 990 1024 1023 989 1024 1058 1057 1023 1058 1092 1091 1057 1092 498 497 1091 490 651 650 491 651 685 684 650 685 719 718 684 719 753 752 718 753 787 786 752 787 821 820 786 821 855 854 820 855 889 888 854 889 923 922 888 923 957 956 922 957 991 990 956 991 1025 1024 990 1025 1059 1058 1024 1059 1093 1092 1058 1093 499 498 1092 489 652 651 490 652 686 685 651 686 720 719 685 720 754 753 719 754 788 787 753 788 822 821 787 822 856 855 821 856 890 889 855 890 924 923 889 924 958 957 923 958 992 991 957 992 1026 1025 991 1026 1060 1059 1025 1060 1094 1093 1059 1094 500 499 1093 488 653 652 489 653 687 686 652 687 721 720 686 721 755 754 720 755 789 788 754 789 823 822 788 823 857 856 822 857 891 890 856 891 925 924 890 925 959 958 924 959 993 992 958 993 1027 1026 992 1027 1061 1060 1026 1061 1095 1094 1060 1095 501 500 1094 487 654 653 488 654 688 687 653 688 722 721 687 722 756 755 721 756 790 789 755 790 824 823 789 824 858 857 823 858 892 891 857 892 926 925 891 926 960 959 925 960 994 993 959 994 1028 1027 993 1028 1062 1061 1027 1062 1096 1095 1061 1096 502 501 1095 486 655 654 487 655 689 688 654 689 723 722 688 723 757 756 722 757 791 790 756 791 825 824 790 825 859 858 824 859 893 892 858 893 927 926 892 927 961 960 926 961 995 994 960 995 1029 1028 994 1029 1063 1062 1028 1063 1097 1096 1062 1097 503 502 1096 485 656 655 486 656 690 689 655 690 724 723 689 724 758 757 723 758 792 791 757 792 826 825 791 826 860 859 825 860 894 893 859 894 928 927 893 928 962 961 927 962 996 995 961 996 1030 1029 995 1030 1064 1063 1029 1064 1098 1097 1063 1098 504 503 1097 484 657 656 485 657 691 690 656 691 725 724 690 725 759 758 724 759 793 792 758 793 827 826 792 827 861 860 826 861 895 894 860 895 929 928 894 929 963 962 928 963 997 996 962 997 1031 1030 996 1031 1065 1064 1030 1065 1099 1098 1064 1099 505 504 1098 483 658 657 484 658 692 691 657 692 726 725 691 726 760 759 725 760 794 793 759 794 828 827 793 828 862 861 827 862 896 895 861 896 930 929 895 930 964 963 929 964 998 997 963 998 1032 1031 997 1032 1066 1065 1031 1066 1100 1099 1065 1100 506 505 1099 482 659 658 483 659 693 692 658 693 727 726 692 727 761 760 726 761 795 794 760 795 829 828 794 829 863 862 828 863 897 896 862 897 931 930 896 931 965 964 930 965 999 998 964 999 1033 1032 998 1033 1067 1066 1032 1067 1101 1100 1066 1101 507 506 1100 481 660 659 482 660 694 693 659 694 728 727 693 728 762 761 727 762 796 795 761 796 830 829 795 830 864 863 829 864 898 897 863 898 932 931 897 932 966 965 931 966 1000 999 965 1000 1034 1033 999 1034 1068 1067 1033 1068 1102 1101 1067 1102 508 507 1101 480 661 660 481 661 695 694 660 695 729 728 694 729 763 762 728 763 797 796 762 797 831 830 796 831 865 864 830 865 899 898 864 899 933 932 898 933 967 966 932 967 1001 1000 966 1001 1035 1034 1000 1035 1069 1068 1034 1069 1103 1102 1068 1103 509 508 1102 479 662 661 480 662 696 695 661 696 730 729 695 730 764 763 729 764 798 797 763 798 832 831 797 832 866 865 831 866 900 899 865 900 934 933 899 934 968 967 933 968 1002 1001 967 1002 1036 1035 1001 1036 1070 1069 1035 1070 1104 1103 1069 1104 510 509 1103 478 663 662 479 663 697 696 662 697 731 730 696 731 765 764 730 765 799 798 764 799 833 832 798 833 867 866 832 867 901 900 866 901 935 934 900 935 969 968 934 969 1003 1002 968 1003 1037 1036 1002 1037 1071 1070 1036 1071 1105 1104 1070 1105 511 510 1104 477 664 663 478 664 698 697 663 698 732 731 697 732 766 765 731 766 800 799 765 800 834 833 799 834 868 867 833 868 902 901 867 902 936 935 901 936 970 969 935 970 1004 1003 969 1004 1038 1037 1003 1038 1072 1071 1037 1072 1106 1105 1071 1106 512 511 1105 476 665 664 477 665 699 698 664 699 733 732 698 733 767 766 732 767 801 800 766 801 835 834 800 835 869 868 834 869 903 902 868 903 937 936 902 937 971 970 936 971 1005 1004 970 1005 1039 1038 1004 1039 1073 1072 1038 1073 1107 1106 1072 1107 513 512 1106 475 666 665 476 666 700 699 665 700 734 733 699 734 768 767 733 768 802 801 767 802 836 835 801 836 870 869 835 870 904 903 869 904 938 937 903 938 972 971 937 972 1006 1005 971 1006 1040 1039 1005 1040 1074 1073 1039 1074 1108 1107 1073 1108 514 513 1107 474 667 666 475 667 701 700 666 701 735 734 700 735 769 768 734 769 803 802 768 803 837 836 802 837 871 870 836 871 905 904 870 905 939 938 904 939 973 972 938 973 1007 1006 972 1007 1041 1040 1006 1041 1075 1074 1040 1075 1109 1108 1074 1109 515 514 1108 473 668 667 474 668 702 701 667 702 736 735 701 736 770 769 735 770 804 803 769 804 838 837 803 838 872 871 837 872 906 905 871 906 940 939 905 940 974 973 939 974 1008 1007 973 1008 1042 1041 1007 1042 1076 1075 1041 1076 1110 1109 1075 1110 516 515 1109 472 669 668 473 669 703 702 668 703 737 736 702 737 771 770 736 771 805 804 770 805 839 838 804 839 873 872 838 873 907 906 872 907 941 940 906 941 975 974 940 975 1009 1008 974 1009 1043 1042 1008 1043 1077 1076 1042 1077 1111 1110 1076 1111 517 516 1110 471 670 669 472 670 704 703 669 704 738 737 703 738 772 771 737 772 806 805 771 806 840 839 805 840 874 873 839 874 908 907 873 908 942 941 907 942 976 975 941 976 1010 1009 975 1010 1044 1043 1009 1044 1078 1077 1043 1078 1112 1111 1077 1112 518 517 1111 470 671 670 471 671 705 704 670 705 739 738 704 739 773 772 738 773 807 806 772 807 841 840 806 841 875 874 840 875 909 908 874 909 943 942 908 943 977 976 942 977 1011 1010 976 1011 1045 1044 1010 1045 1079 1078 1044 1079 1113 1112 1078 1113 519 518 1112 469 672 671 470 672 706 705 671 706 740 739 705 740 774 773 739 774 808 807 773 808 842 841 807 842 876 875 841 876 910 909 875 910 944 943 909 944 978 977 943 978 1012 1011 977 1012 1046 1045 1011 1046 1080 1079 1045 1080 1114 1113 1079 1114 520 519 1113 468 673 672 469 673 707 706 672 707 741 740 706 741 775 774 740 775 809 808 774 809 843 842 808 843 877 876 842 877 911 910 876 911 945 944 910 945 979 978 944 979 1013 1012 978 1013 1047 1046 1012 1047 1081 1080 1046 1081 1115 1114 1080 1115 521 520 1114 467 674 673 468 674 708 707 673 708 742 741 707 742 776 775 741 776 810 809 775 810 844 843 809 844 878 877 843 878 912 911 877 912 946 945 911 946 980 979 945 980 1014 1013 979 1014 1048 1047 1013 1048 1082 1081 1047 1082 1116 1115 1081 1116 522 521 1115 466 675 674 467 675 709 708 674 709 743 742 708 743 777 776 742 777 811 810 776 811 845 844 810 845 879 878 844 879 913 912 878 913 947 946 912 947 981 980 946 981 1015 1014 980 1015 1049 1048 1014 1049 1083 1082 1048 1083 1117 1116 1082 1117 523 522 1116 465 676 675 466 676 710 709 675 710 744 743 709 744 778 777 743 778 812 811 777 812 846 845 811 846 880 879 845 880 914 913 879 914 948 947 913 948 982 981 947 982 1016 1015 981 1016 1050 1049 1015 1050 1084 1083 1049 1084 1118 1117 1083 1118 524 523 1117 464 677 676 465 677 711 710 676 711 745 744 710 745 779 778 744 779 813 812 778 813 847 846 812 847 881 880 846 881 915 914 880 915 949 948 914 949 983 982 948 983 1017 1016 982 1017 1051 1050 1016 1051 1085 1084 1050 1085 1119 1118 1084 1119 525 524 1118 463 678 677 464 678 712 711 677 712 746 745 711 746 780 779 745 780 814 813 779 814 848 847 813 848 882 881 847 882 916 915 881 916 950 949 915 950 984 983 949 984 1018 1017 983 1018 1052 1051 1017 1052 1086 1085 1051 1086 1120 1119 1085 1120 526 525 1119 462 679 678 463 679 713 712 678 713 747 746 712 747 781 780 746 781 815 814 780 815 849 848 814 849 883 882 848 883 917 916 882 917 951 950 916 951 985 984 950 985 1019 1018 984 1019 1053 1052 1018 1053 1087 1086 1052 1087 1121 1120 1086 1121 527 526 1120 461 680 679 462 680 714 713 679 714 748 747 713 748 782 781 747 782 816 815 781 816 850 849 815 850 884 883 849 884 918 917 883 918 952 951 917 952 986 985 951 986 1020 1019 985 1020 1054 1053 1019 1054 1088 1087 1053 1088 1122 1121 1087 1122 528 527 1121 0 313 680 461 313 312 714 680 312 311 748 714 311 310 782 748 310 309 816 782 309 308 850 816 308 307 884 850 307 306 918 884 306 305 952 918 305 304 986 952 304 303 1020 986 303 302 1054 1020 302 301 1088 1054 301 300 1122 1088 300 15 528 1122 388 1123 314 1 1123 1142 315 314 1142 1161 316 315 1161 1180 317 316 1180 1199 318 317 1199 1218 319 318 1218 1237 320 319 1237 1256 321 320 1256 1275 322 321 1275 1294 323 322 1294 1313 324 323 1313 1332 325 324 1332 1351 326 325 1351 1370 327 326 1370 389 8 327 387 1124 1123 388 1124 1143 1142 1123 1143 1162 1161 1142 1162 1181 1180 1161 1181 1200 1199 1180 1200 1219 1218 1199 1219 1238 1237 1218 1238 1257 1256 1237 1257 1276 1275 1256 1276 1295 1294 1275 1295 1314 1313 1294 1314 1333 1332 1313 1333 1352 1351 1332 1352 1371 1370 1351 1371 390 389 1370 386 1125 1124 387 1125 1144 1143 1124 1144 1163 1162 1143 1163 1182 1181 1162 1182 1201 1200 1181 1201 1220 1219 1200 1220 1239 1238 1219 1239 1258 1257 1238 1258 1277 1276 1257 1277 1296 1295 1276 1296 1315 1314 1295 1315 1334 1333 1314 1334 1353 1352 1333 1353 1372 1371 1352 1372 391 390 1371 385 1126 1125 386 1126 1145 1144 1125 1145 1164 1163 1144 1164 1183 1182 1163 1183 1202 1201 1182 1202 1221 1220 1201 1221 1240 1239 1220 1240 1259 1258 1239 1259 1278 1277 1258 1278 1297 1296 1277 1297 1316 1315 1296 1316 1335 1334 1315 1335 1354 1353 1334 1354 1373 1372 1353 1373 392 391 1372 384 1127 1126 385 1127 1146 1145 1126 1146 1165 1164 1145 1165 1184 1183 1164 1184 1203 1202 1183 1203 1222 1221 1202 1222 1241 1240 1221 1241 1260 1259 1240 1260 1279 1278 1259 1279 1298 1297 1278 1298 1317 1316 1297 1317 1336 1335 1316 1336 1355 1354 1335 1355 1374 1373 1354 1374 393 392 1373 383 1128 1127 384 1128 1147 1146 1127 1147 1166 1165 1146 1166 1185 1184 1165 1185 1204 1203 1184 1204 1223 1222 1203 1223 1242 1241 1222 1242 1261 1260 1241 1261 1280 1279 1260 1280 1299 1298 1279 1299 1318 1317 1298 1318 1337 1336 1317 1337 1356 1355 1336 1356 1375 1374 1355 1375 394 393 1374 382 1129 1128 383 1129 1148 1147 1128 1148 1167 1166 1147 1167 1186 1185 1166 1186 1205 1204 1185 1205 1224 1223 1204 1224 1243 1242 1223 1243 1262 1261 1242 1262 1281 1280 1261 1281 1300 1299 1280 1300 1319 1318 1299 1319 1338 1337 1318 1338 1357 1356 1337 1357 1376 1375 1356 1376 395 394 1375 381 1130 1129 382 1130 1149 1148 1129 1149 1168 1167 1148 1168 1187 1186 1167 1187 1206 1205 1186 1206 1225 1224 1205 1225 1244 1243 1224 1244 1263 1262 1243 1263 1282 1281 1262 1282 1301 1300 1281 1301 1320 1319 1300 1320 1339 1338 1319 1339 1358 1357 1338 1358 1377 1376 1357 1377 396 395 1376 380 1131 1130 381 1131 1150 1149 1130 1150 1169 1168 1149 1169 1188 1187 1168 1188 1207 1206 1187 1207 1226 1225 1206 1226 1245 1244 1225 1245 1264 1263 1244 1264 1283 1282 1263 1283 1302 1301 1282 1302 1321 1320 1301 1321 1340 1339 1320 1340 1359 1358 1339 1359 1378 1377 1358 1378 397 396 1377 379 1132 1131 380 1132 1151 1150 1131 1151 1170 1169 1150 1170 1189 1188 1169 1189 1208 1207 1188 1208 1227 1226 1207 1227 1246 1245 1226 1246 1265 1264 1245 1265 1284 1283 1264 1284 1303 1302 1283 1303 1322 1321 1302 1322 1341 1340 1321 1341 1360 1359 1340 1360 1379 1378 1359 1379 398 397 1378 378 1133 1132 379 1133 1152 1151 1132 1152 1171 1170 1151 1171 1190 1189 1170 1190 1209 1208 1189 1209 1228 1227 1208 1228 1247 1246 1227 1247 1266 1265 1246 1266 1285 1284 1265 1285 1304 1303 1284 1304 1323 1322 1303 1323 1342 1341 1322 1342 1361 1360 1341 1361 1380 1379 1360 1380 399 398 1379 377 1134 1133 378 1134 1153 1152 1133 1153 1172 1171 1152 1172 1191 1190 1171 1191 1210 1209 1190 1210 1229 1228 1209 1229 1248 1247 1228 1248 1267 1266 1247 1267 1286 1285 1266 1286 1305 1304 1285 1305 1324 1323 1304 1324 1343 1342 1323 1343 1362 1361 1342 1362 1381 1380 1361 1381 400 399 1380 376 1135 1134 377 1135 1154 1153 1134 1154 1173 1172 1153 1173 1192 1191 1172 1192 1211 1210 1191 1211 1230 1229 1210 1230 1249 1248 1229 1249 1268 1267 1248 1268 1287 1286 1267 1287 1306 1305 1286 1306 1325 1324 1305 1325 1344 1343 1324 1344 1363 1362 1343 1363 1382 1381 1362 1382 401 400 1381 375 1136 1135 376 1136 1155 1154 1135 1155 1174 1173 1154 1174 1193 1192 1173 1193 1212 1211 1192 1212 1231 1230 1211 1231 1250 1249 1230 1250 1269 1268 1249 1269 1288 1287 1268 1288 1307 1306 1287 1307 1326 1325 1306 1326 1345 1344 1325 1345 1364 1363 1344 1364 1383 1382 1363 1383 402 401 1382 374 1137 1136 375 1137 1156 1155 1136 1156 1175 1174 1155 1175 1194 1193 1174 1194 1213 1212 1193 1213 1232 1231 1212 1232 1251 1250 1231 1251 1270 1269 1250 1270 1289 1288 1269 1289 1308 1307 1288 1308 1327 1326 1307 1327 1346 1345 1326 1346 1365 1364 1345 1365 1384 1383 1364 1384 403 402 1383 373 1138 1137 374 1138 1157 1156 1137 1157 1176 1175 1156 1176 1195 1194 1175 1195 1214 1213 1194 1214 1233 1232 1213 1233 1252 1251 1232 1252 1271 1270 1251 1271 1290 1289 1270 1290 1309 1308 1289 1309 1328 1327 1308 1328 1347 1346 1327 1347 1366 1365 1346 1366 1385 1384 1365 1385 404 403 1384 372 1139 1138 373 1139 1158 1157 1138 1158 1177 1176 1157 1177 1196 1195 1176 1196 1215 1214 1195 1215 1234 1233 1214 1234 1253 1252 1233 1253 1272 1271 1252 1272 1291 1290 1271 1291 1310 1309 1290 1310 1329 1328 1309 1329 1348 1347 1328 1348 1367 1366 1347 1367 1386 1385 1366 1386 405 404 1385 371 1140 1139 372 1140 1159 1158 1139 1159 1178 1177 1158 1178 1197 1196 1177 1197 1216 1215 1196 1216 1235 1234 1215 1235 1254 1253 1234 1254 1273 1272 1253 1273 1292 1291 1272 1292 1311 1310 1291 1311 1330 1329 1310 1330 1349 1348 1329 1349 1368 1367 1348 1368 1387 1386 1367 1387 406 405 1386 370 1141 1140 371 1141 1160 1159 1140 1160 1179 1178 1159 1179 1198 1197 1178 1198 1217 1216 1197 1217 1236 1235 1216 1236 1255 1254 1235 1255 1274 1273 1254 1274 1293 1292 1273 1293 1312 1311 1292 1312 1331 1330 1311 1331 1350 1349 1330 1350 1369 1368 1349 1369 1388 1387 1368 1388 407 406 1387 2 355 1141 370 355 354 1160 1141 354 353 1179 1160 353 352 1198 1179 352 351 1217 1198 351 350 1236 1217 350 349 1255 1236 349 348 1274 1255 348 347 1293 1274 347 346 1312 1293 346 345 1331 1312 345 344 1350 1331 344 343 1369 1350 343 342 1388 1369 342 9 407 1388 562 1389 369 17 1389 1423 368 369 1423 1457 367 368 1457 1491 366 367 1491 1525 365 366 1525 1559 364 365 1559 1593 363 364 1593 1627 362 363 1627 1661 361 362 1661 1695 360 361 1695 1729 359 360 1729 1763 358 359 1763 1797 357 358 1797 1831 356 357 1831 563 12 356 561 1390 1389 562 1390 1424 1423 1389 1424 1458 1457 1423 1458 1492 1491 1457 1492 1526 1525 1491 1526 1560 1559 1525 1560 1594 1593 1559 1594 1628 1627 1593 1628 1662 1661 1627 1662 1696 1695 1661 1696 1730 1729 1695 1730 1764 1763 1729 1764 1798 1797 1763 1798 1832 1831 1797 1832 564 563 1831 560 1391 1390 561 1391 1425 1424 1390 1425 1459 1458 1424 1459 1493 1492 1458 1493 1527 1526 1492 1527 1561 1560 1526 1561 1595 1594 1560 1595 1629 1628 1594 1629 1663 1662 1628 1663 1697 1696 1662 1697 1731 1730 1696 1731 1765 1764 1730 1765 1799 1798 1764 1799 1833 1832 1798 1833 565 564 1832 559 1392 1391 560 1392 1426 1425 1391 1426 1460 1459 1425 1460 1494 1493 1459 1494 1528 1527 1493 1528 1562 1561 1527 1562 1596 1595 1561 1596 1630 1629 1595 1630 1664 1663 1629 1664 1698 1697 1663 1698 1732 1731 1697 1732 1766 1765 1731 1766 1800 1799 1765 1800 1834 1833 1799 1834 566 565 1833 558 1393 1392 559 1393 1427 1426 1392 1427 1461 1460 1426 1461 1495 1494 1460 1495 1529 1528 1494 1529 1563 1562 1528 1563 1597 1596 1562 1597 1631 1630 1596 1631 1665 1664 1630 1665 1699 1698 1664 1699 1733 1732 1698 1733 1767 1766 1732 1767 1801 1800 1766 1801 1835 1834 1800 1835 567 566 1834 557 1394 1393 558 1394 1428 1427 1393 1428 1462 1461 1427 1462 1496 1495 1461 1496 1530 1529 1495 1530 1564 1563 1529 1564 1598 1597 1563 1598 1632 1631 1597 1632 1666 1665 1631 1666 1700 1699 1665 1700 1734 1733 1699 1734 1768 1767 1733 1768 1802 1801 1767 1802 1836 1835 1801 1836 568 567 1835 556 1395 1394 557 1395 1429 1428 1394 1429 1463 1462 1428 1463 1497 1496 1462 1497 1531 1530 1496 1531 1565 1564 1530 1565 1599 1598 1564 1599 1633 1632 1598 1633 1667 1666 1632 1667 1701 1700 1666 1701 1735 1734 1700 1735 1769 1768 1734 1769 1803 1802 1768 1803 1837 1836 1802 1837 569 568 1836 555 1396 1395 556 1396 1430 1429 1395 1430 1464 1463 1429 1464 1498 1497 1463 1498 1532 1531 1497 1532 1566 1565 1531 1566 1600 1599 1565 1600 1634 1633 1599 1634 1668 1667 1633 1668 1702 1701 1667 1702 1736 1735 1701 1736 1770 1769 1735 1770 1804 1803 1769 1804 1838 1837 1803 1838 570 569 1837 554 1397 1396 555 1397 1431 1430 1396 1431 1465 1464 1430 1465 1499 1498 1464 1499 1533 1532 1498 1533 1567 1566 1532 1567 1601 1600 1566 1601 1635 1634 1600 1635 1669 1668 1634 1669 1703 1702 1668 1703 1737 1736 1702 1737 1771 1770 1736 1771 1805 1804 1770 1805 1839 1838 1804 1839 571 570 1838 553 1398 1397 554 1398 1432 1431 1397 1432 1466 1465 1431 1466 1500 1499 1465 1500 1534 1533 1499 1534 1568 1567 1533 1568 1602 1601 1567 1602 1636 1635 1601 1636 1670 1669 1635 1670 1704 1703 1669 1704 1738 1737 1703 1738 1772 1771 1737 1772 1806 1805 1771 1806 1840 1839 1805 1840 572 571 1839 552 1399 1398 553 1399 1433 1432 1398 1433 1467 1466 1432 1467 1501 1500 1466 1501 1535 1534 1500 1535 1569 1568 1534 1569 1603 1602 1568 1603 1637 1636 1602 1637 1671 1670 1636 1671 1705 1704 1670 1705 1739 1738 1704 1739 1773 1772 1738 1773 1807 1806 1772 1807 1841 1840 1806 1841 573 572 1840 551 1400 1399 552 1400 1434 1433 1399 1434 1468 1467 1433 1468 1502 1501 1467 1502 1536 1535 1501 1536 1570 1569 1535 1570 1604 1603 1569 1604 1638 1637 1603 1638 1672 1671 1637 1672 1706 1705 1671 1706 1740 1739 1705 1740 1774 1773 1739 1774 1808 1807 1773 1808 1842 1841 1807 1842 574 573 1841 550 1401 1400 551 1401 1435 1434 1400 1435 1469 1468 1434 1469 1503 1502 1468 1503 1537 1536 1502 1537 1571 1570 1536 1571 1605 1604 1570 1605 1639 1638 1604 1639 1673 1672 1638 1673 1707 1706 1672 1707 1741 1740 1706 1741 1775 1774 1740 1775 1809 1808 1774 1809 1843 1842 1808 1843 575 574 1842 549 1402 1401 550 1402 1436 1435 1401 1436 1470 1469 1435 1470 1504 1503 1469 1504 1538 1537 1503 1538 1572 1571 1537 1572 1606 1605 1571 1606 1640 1639 1605 1640 1674 1673 1639 1674 1708 1707 1673 1708 1742 1741 1707 1742 1776 1775 1741 1776 1810 1809 1775 1810 1844 1843 1809 1844 576 575 1843 548 1403 1402 549 1403 1437 1436 1402 1437 1471 1470 1436 1471 1505 1504 1470 1505 1539 1538 1504 1539 1573 1572 1538 1573 1607 1606 1572 1607 1641 1640 1606 1641 1675 1674 1640 1675 1709 1708 1674 1709 1743 1742 1708 1743 1777 1776 1742 1777 1811 1810 1776 1811 1845 1844 1810 1845 577 576 1844 547 1404 1403 548 1404 1438 1437 1403 1438 1472 1471 1437 1472 1506 1505 1471 1506 1540 1539 1505 1540 1574 1573 1539 1574 1608 1607 1573 1608 1642 1641 1607 1642 1676 1675 1641 1676 1710 1709 1675 1710 1744 1743 1709 1744 1778 1777 1743 1778 1812 1811 1777 1812 1846 1845 1811 1846 578 577 1845 546 1405 1404 547 1405 1439 1438 1404 1439 1473 1472 1438 1473 1507 1506 1472 1507 1541 1540 1506 1541 1575 1574 1540 1575 1609 1608 1574 1609 1643 1642 1608 1643 1677 1676 1642 1677 1711 1710 1676 1711 1745 1744 1710 1745 1779 1778 1744 1779 1813 1812 1778 1813 1847 1846 1812 1847 579 578 1846 545 1406 1405 546 1406 1440 1439 1405 1440 1474 1473 1439 1474 1508 1507 1473 1508 1542 1541 1507 1542 1576 1575 1541 1576 1610 1609 1575 1610 1644 1643 1609 1644 1678 1677 1643 1678 1712 1711 1677 1712 1746 1745 1711 1746 1780 1779 1745 1780 1814 1813 1779 1814 1848 1847 1813 1848 580 579 1847 544 1407 1406 545 1407 1441 1440 1406 1441 1475 1474 1440 1475 1509 1508 1474 1509 1543 1542 1508 1543 1577 1576 1542 1577 1611 1610 1576 1611 1645 1644 1610 1645 1679 1678 1644 1679 1713 1712 1678 1713 1747 1746 1712 1747 1781 1780 1746 1781 1815 1814 1780 1815 1849 1848 1814 1849 581 580 1848 543 1408 1407 544 1408 1442 1441 1407 1442 1476 1475 1441 1476 1510 1509 1475 1510 1544 1543 1509 1544 1578 1577 1543 1578 1612 1611 1577 1612 1646 1645 1611 1646 1680 1679 1645 1680 1714 1713 1679 1714 1748 1747 1713 1748 1782 1781 1747 1782 1816 1815 1781 1816 1850 1849 1815 1850 582 581 1849 542 1409 1408 543 1409 1443 1442 1408 1443 1477 1476 1442 1477 1511 1510 1476 1511 1545 1544 1510 1545 1579 1578 1544 1579 1613 1612 1578 1613 1647 1646 1612 1647 1681 1680 1646 1681 1715 1714 1680 1715 1749 1748 1714 1749 1783 1782 1748 1783 1817 1816 1782 1817 1851 1850 1816 1851 583 582 1850 541 1410 1409 542 1410 1444 1443 1409 1444 1478 1477 1443 1478 1512 1511 1477 1512 1546 1545 1511 1546 1580 1579 1545 1580 1614 1613 1579 1614 1648 1647 1613 1648 1682 1681 1647 1682 1716 1715 1681 1716 1750 1749 1715 1750 1784 1783 1749 1784 1818 1817 1783 1818 1852 1851 1817 1852 584 583 1851 540 1411 1410 541 1411 1445 1444 1410 1445 1479 1478 1444 1479 1513 1512 1478 1513 1547 1546 1512 1547 1581 1580 1546 1581 1615 1614 1580 1615 1649 1648 1614 1649 1683 1682 1648 1683 1717 1716 1682 1717 1751 1750 1716 1751 1785 1784 1750 1785 1819 1818 1784 1819 1853 1852 1818 1853 585 584 1852 539 1412 1411 540 1412 1446 1445 1411 1446 1480 1479 1445 1480 1514 1513 1479 1514 1548 1547 1513 1548 1582 1581 1547 1582 1616 1615 1581 1616 1650 1649 1615 1650 1684 1683 1649 1684 1718 1717 1683 1718 1752 1751 1717 1752 1786 1785 1751 1786 1820 1819 1785 1820 1854 1853 1819 1854 586 585 1853 538 1413 1412 539 1413 1447 1446 1412 1447 1481 1480 1446 1481 1515 1514 1480 1515 1549 1548 1514 1549 1583 1582 1548 1583 1617 1616 1582 1617 1651 1650 1616 1651 1685 1684 1650 1685 1719 1718 1684 1719 1753 1752 1718 1753 1787 1786 1752 1787 1821 1820 1786 1821 1855 1854 1820 1855 587 586 1854 537 1414 1413 538 1414 1448 1447 1413 1448 1482 1481 1447 1482 1516 1515 1481 1516 1550 1549 1515 1550 1584 1583 1549 1584 1618 1617 1583 1618 1652 1651 1617 1652 1686 1685 1651 1686 1720 1719 1685 1720 1754 1753 1719 1754 1788 1787 1753 1788 1822 1821 1787 1822 1856 1855 1821 1856 588 587 1855 536 1415 1414 537 1415 1449 1448 1414 1449 1483 1482 1448 1483 1517 1516 1482 1517 1551 1550 1516 1551 1585 1584 1550 1585 1619 1618 1584 1619 1653 1652 1618 1653 1687 1686 1652 1687 1721 1720 1686 1721 1755 1754 1720 1755 1789 1788 1754 1789 1823 1822 1788 1823 1857 1856 1822 1857 589 588 1856 535 1416 1415 536 1416 1450 1449 1415 1450 1484 1483 1449 1484 1518 1517 1483 1518 1552 1551 1517 1552 1586 1585 1551 1586 1620 1619 1585 1620 1654 1653 1619 1654 1688 1687 1653 1688 1722 1721 1687 1722 1756 1755 1721 1756 1790 1789 1755 1790 1824 1823 1789 1824 1858 1857 1823 1858 590 589 1857 534 1417 1416 535 1417 1451 1450 1416 1451 1485 1484 1450 1485 1519 1518 1484 1519 1553 1552 1518 1553 1587 1586 1552 1587 1621 1620 1586 1621 1655 1654 1620 1655 1689 1688 1654 1689 1723 1722 1688 1723 1757 1756 1722 1757 1791 1790 1756 1791 1825 1824 1790 1825 1859 1858 1824 1859 591 590 1858 533 1418 1417 534 1418 1452 1451 1417 1452 1486 1485 1451 1486 1520 1519 1485 1520 1554 1553 1519 1554 1588 1587 1553 1588 1622 1621 1587 1622 1656 1655 1621 1656 1690 1689 1655 1690 1724 1723 1689 1724 1758 1757 1723 1758 1792 1791 1757 1792 1826 1825 1791 1826 1860 1859 1825 1860 592 591 1859 532 1419 1418 533 1419 1453 1452 1418 1453 1487 1486 1452 1487 1521 1520 1486 1521 1555 1554 1520 1555 1589 1588 1554 1589 1623 1622 1588 1623 1657 1656 1622 1657 1691 1690 1656 1691 1725 1724 1690 1725 1759 1758 1724 1759 1793 1792 1758 1793 1827 1826 1792 1827 1861 1860 1826 1861 593 592 1860 531 1420 1419 532 1420 1454 1453 1419 1454 1488 1487 1453 1488 1522 1521 1487 1522 1556 1555 1521 1556 1590 1589 1555 1590 1624 1623 1589 1624 1658 1657 1623 1658 1692 1691 1657 1692 1726 1725 1691 1726 1760 1759 1725 1760 1794 1793 1759 1794 1828 1827 1793 1828 1862 1861 1827 1862 594 593 1861 530 1421 1420 531 1421 1455 1454 1420 1455 1489 1488 1454 1489 1523 1522 1488 1523 1557 1556 1522 1557 1591 1590 1556 1591 1625 1624 1590 1625 1659 1658 1624 1659 1693 1692 1658 1693 1727 1726 1692 1727 1761 1760 1726 1761 1795 1794 1760 1795 1829 1828 1794 1829 1863 1862 1828 1863 595 594 1862 529 1422 1421 530 1422 1456 1455 1421 1456 1490 1489 1455 1490 1524 1523 1489 1524 1558 1557 1523 1558 1592 1591 1557 1592 1626 1625 1591 1626 1660 1659 1625 1660 1694 1693 1659 1694 1728 1727 1693 1728 1762 1761 1727 1762 1796 1795 1761 1796 1830 1829 1795 1830 1864 1863 1829 1864 596 595 1863 16 341 1422 529 341 340 1456 1422 340 339 1490 1456 339 338 1524 1490 338 337 1558 1524 337 336 1592 1558 336 335 1626 1592 335 334 1660 1626 334 333 1694 1660 333 332 1728 1694 332 331 1762 1728 331 330 1796 1762 330 329 1830 1796 329 328 1864 1830 328 3 596 1864 13 152 1865 494 152 153 1964 1865 153 154 2063 1964 154 155 2162 2063 155 156 2261 2162 156 157 2360 2261 157 158 2459 2360 158 159 2558 2459 159 160 2657 2558 160 161 2756 2657 161 162 2855 2756 162 163 2954 2855 163 164 3053 2954 164 165 3152 3053 165 166 3251 3152 166 167 3350 3251 167 168 3449 3350 168 169 3548 3449 169 170 3647 3548 170 171 3746 3647 171 172 3845 3746 172 173 3944 3845 173 174 4043 3944 174 175 4142 4043 175 176 4241 4142 176 177 4340 4241 177 178 4439 4340 178 179 4538 4439 179 180 4637 4538 180 181 4736 4637 181 182 4835 4736 182 183 4934 4835 183 184 5033 4934 184 185 5132 5033 185 186 5231 5132 186 187 5330 5231 187 188 5429 5330 188 189 5528 5429 189 190 5627 5528 190 191 5726 5627 191 192 5825 5726 192 193 5924 5825 193 194 6023 5924 194 195 6122 6023 195 196 6221 6122 196 197 6320 6221 197 198 6419 6320 198 199 6518 6419 199 200 6617 6518 200 201 6716 6617 201 202 6815 6716 202 203 6914 6815 203 204 7013 6914 204 205 7112 7013 205 206 7211 7112 206 207 7310 7211 207 208 7409 7310 208 209 7508 7409 209 210 7607 7508 210 211 7706 7607 211 212 7805 7706 212 213 7904 7805 213 214 8003 7904 214 215 8102 8003 215 216 8201 8102 216 217 8300 8201 217 218 8399 8300 218 219 8498 8399 219 220 8597 8498 220 221 8696 8597 221 222 8795 8696 222 223 8894 8795 223 224 8993 8894 224 225 9092 8993 225 226 9191 9092 226 227 9290 9191 227 228 9389 9290 228 229 9488 9389 229 230 9587 9488 230 231 9686 9587 231 232 9785 9686 232 233 9884 9785 233 234 9983 9884 234 235 10082 9983 235 236 10181 10082 236 237 10280 10181 237 238 10379 10280 238 239 10478 10379 239 240 10577 10478 240 241 10676 10577 241 242 10775 10676 242 243 10874 10775 243 244 10973 10874 244 245 11072 10973 245 246 11171 11072 246 247 11270 11171 247 248 11369 11270 248 249 11468 11369 249 250 11567 11468 250 251 11666 11567 251 252 11765 11666 252 253 11864 11765 253 254 11963 11864 254 255 12062 11963 255 256 12161 12062 256 257 12260 12161 257 258 12359 12260 258 259 12458 12359 259 260 12557 12458 260 261 12656 12557 261 262 12755 12656 262 263 12854 12755 263 264 12953 12854 264 265 13052 12953 265 266 13151 13052 266 267 13250 13151 267 268 13349 13250 268 269 13448 13349 269 270 13547 13448 270 271 13646 13547 271 272 13745 13646 272 273 13844 13745 273 274 13943 13844 274 275 14042 13943 275 276 14141 14042 276 277 14240 14141 277 278 14339 14240 278 279 14438 14339 279 280 14537 14438 280 281 14636 14537 281 282 14735 14636 282 283 14834 14735 283 284 14933 14834 284 285 15032 14933 285 10 427 15032 494 1865 1866 493 1865 1964 1965 1866 1964 2063 2064 1965 2063 2162 2163 2064 2162 2261 2262 2163 2261 2360 2361 2262 2360 2459 2460 2361 2459 2558 2559 2460 2558 2657 2658 2559 2657 2756 2757 2658 2756 2855 2856 2757 2855 2954 2955 2856 2954 3053 3054 2955 3053 3152 3153 3054 3152 3251 3252 3153 3251 3350 3351 3252 3350 3449 3450 3351 3449 3548 3549 3450 3548 3647 3648 3549 3647 3746 3747 3648 3746 3845 3846 3747 3845 3944 3945 3846 3944 4043 4044 3945 4043 4142 4143 4044 4142 4241 4242 4143 4241 4340 4341 4242 4340 4439 4440 4341 4439 4538 4539 4440 4538 4637 4638 4539 4637 4736 4737 4638 4736 4835 4836 4737 4835 4934 4935 4836 4934 5033 5034 4935 5033 5132 5133 5034 5132 5231 5232 5133 5231 5330 5331 5232 5330 5429 5430 5331 5429 5528 5529 5430 5528 5627 5628 5529 5627 5726 5727 5628 5726 5825 5826 5727 5825 5924 5925 5826 5924 6023 6024 5925 6023 6122 6123 6024 6122 6221 6222 6123 6221 6320 6321 6222 6320 6419 6420 6321 6419 6518 6519 6420 6518 6617 6618 6519 6617 6716 6717 6618 6716 6815 6816 6717 6815 6914 6915 6816 6914 7013 7014 6915 7013 7112 7113 7014 7112 7211 7212 7113 7211 7310 7311 7212 7310 7409 7410 7311 7409 7508 7509 7410 7508 7607 7608 7509 7607 7706 7707 7608 7706 7805 7806 7707 7805 7904 7905 7806 7904 8003 8004 7905 8003 8102 8103 8004 8102 8201 8202 8103 8201 8300 8301 8202 8300 8399 8400 8301 8399 8498 8499 8400 8498 8597 8598 8499 8597 8696 8697 8598 8696 8795 8796 8697 8795 8894 8895 8796 8894 8993 8994 8895 8993 9092 9093 8994 9092 9191 9192 9093 9191 9290 9291 9192 9290 9389 9390 9291 9389 9488 9489 9390 9488 9587 9588 9489 9587 9686 9687 9588 9686 9785 9786 9687 9785 9884 9885 9786 9884 9983 9984 9885 9983 10082 10083 9984 10082 10181 10182 10083 10181 10280 10281 10182 10280 10379 10380 10281 10379 10478 10479 10380 10478 10577 10578 10479 10577 10676 10677 10578 10676 10775 10776 10677 10775 10874 10875 10776 10874 10973 10974 10875 10973 11072 11073 10974 11072 11171 11172 11073 11171 11270 11271 11172 11270 11369 11370 11271 11369 11468 11469 11370 11468 11567 11568 11469 11567 11666 11667 11568 11666 11765 11766 11667 11765 11864 11865 11766 11864 11963 11964 11865 11963 12062 12063 11964 12062 12161 12162 12063 12161 12260 12261 12162 12260 12359 12360 12261 12359 12458 12459 12360 12458 12557 12558 12459 12557 12656 12657 12558 12656 12755 12756 12657 12755 12854 12855 12756 12854 12953 12954 12855 12953 13052 13053 12954 13052 13151 13152 13053 13151 13250 13251 13152 13250 13349 13350 13251 13349 13448 13449 13350 13448 13547 13548 13449 13547 13646 13647 13548 13646 13745 13746 13647 13745 13844 13845 13746 13844 13943 13944 13845 13943 14042 14043 13944 14042 14141 14142 14043 14141 14240 14241 14142 14240 14339 14340 14241 14339 14438 14439 14340 14438 14537 14538 14439 14537 14636 14637 14538 14636 14735 14736 14637 14735 14834 14835 14736 14834 14933 14934 14835 14933 15032 15033 14934 15032 427 428 15033 493 1866 1867 492 1866 1965 1966 1867 1965 2064 2065 1966 2064 2163 2164 2065 2163 2262 2263 2164 2262 2361 2362 2263 2361 2460 2461 2362 2460 2559 2560 2461 2559 2658 2659 2560 2658 2757 2758 2659 2757 2856 2857 2758 2856 2955 2956 2857 2955 3054 3055 2956 3054 3153 3154 3055 3153 3252 3253 3154 3252 3351 3352 3253 3351 3450 3451 3352 3450 3549 3550 3451 3549 3648 3649 3550 3648 3747 3748 3649 3747 3846 3847 3748 3846 3945 3946 3847 3945 4044 4045 3946 4044 4143 4144 4045 4143 4242 4243 4144 4242 4341 4342 4243 4341 4440 4441 4342 4440 4539 4540 4441 4539 4638 4639 4540 4638 4737 4738 4639 4737 4836 4837 4738 4836 4935 4936 4837 4935 5034 5035 4936 5034 5133 5134 5035 5133 5232 5233 5134 5232 5331 5332 5233 5331 5430 5431 5332 5430 5529 5530 5431 5529 5628 5629 5530 5628 5727 5728 5629 5727 5826 5827 5728 5826 5925 5926 5827 5925 6024 6025 5926 6024 6123 6124 6025 6123 6222 6223 6124 6222 6321 6322 6223 6321 6420 6421 6322 6420 6519 6520 6421 6519 6618 6619 6520 6618 6717 6718 6619 6717 6816 6817 6718 6816 6915 6916 6817 6915 7014 7015 6916 7014 7113 7114 7015 7113 7212 7213 7114 7212 7311 7312 7213 7311 7410 7411 7312 7410 7509 7510 7411 7509 7608 7609 7510 7608 7707 7708 7609 7707 7806 7807 7708 7806 7905 7906 7807 7905 8004 8005 7906 8004 8103 8104 8005 8103 8202 8203 8104 8202 8301 8302 8203 8301 8400 8401 8302 8400 8499 8500 8401 8499 8598 8599 8500 8598 8697 8698 8599 8697 8796 8797 8698 8796 8895 8896 8797 8895 8994 8995 8896 8994 9093 9094 8995 9093 9192 9193 9094 9192 9291 9292 9193 9291 9390 9391 9292 9390 9489 9490 9391 9489 9588 9589 9490 9588 9687 9688 9589 9687 9786 9787 9688 9786 9885 9886 9787 9885 9984 9985 9886 9984 10083 10084 9985 10083 10182 10183 10084 10182 10281 10282 10183 10281 10380 10381 10282 10380 10479 10480 10381 10479 10578 10579 10480 10578 10677 10678 10579 10677 10776 10777 10678 10776 10875 10876 10777 10875 10974 10975 10876 10974 11073 11074 10975 11073 11172 11173 11074 11172 11271 11272 11173 11271 11370 11371 11272 11370 11469 11470 11371 11469 11568 11569 11470 11568 11667 11668 11569 11667 11766 11767 11668 11766 11865 11866 11767 11865 11964 11965 11866 11964 12063 12064 11965 12063 12162 12163 12064 12162 12261 12262 12163 12261 12360 12361 12262 12360 12459 12460 12361 12459 12558 12559 12460 12558 12657 12658 12559 12657 12756 12757 12658 12756 12855 12856 12757 12855 12954 12955 12856 12954 13053 13054 12955 13053 13152 13153 13054 13152 13251 13252 13153 13251 13350 13351 13252 13350 13449 13450 13351 13449 13548 13549 13450 13548 13647 13648 13549 13647 13746 13747 13648 13746 13845 13846 13747 13845 13944 13945 13846 13944 14043 14044 13945 14043 14142 14143 14044 14142 14241 14242 14143 14241 14340 14341 14242 14340 14439 14440 14341 14439 14538 14539 14440 14538 14637 14638 14539 14637 14736 14737 14638 14736 14835 14836 14737 14835 14934 14935 14836 14934 15033 15034 14935 15033 428 429 15034 492 1867 1868 491 1867 1966 1967 1868 1966 2065 2066 1967 2065 2164 2165 2066 2164 2263 2264 2165 2263 2362 2363 2264 2362 2461 2462 2363 2461 2560 2561 2462 2560 2659 2660 2561 2659 2758 2759 2660 2758 2857 2858 2759 2857 2956 2957 2858 2956 3055 3056 2957 3055 3154 3155 3056 3154 3253 3254 3155 3253 3352 3353 3254 3352 3451 3452 3353 3451 3550 3551 3452 3550 3649 3650 3551 3649 3748 3749 3650 3748 3847 3848 3749 3847 3946 3947 3848 3946 4045 4046 3947 4045 4144 4145 4046 4144 4243 4244 4145 4243 4342 4343 4244 4342 4441 4442 4343 4441 4540 4541 4442 4540 4639 4640 4541 4639 4738 4739 4640 4738 4837 4838 4739 4837 4936 4937 4838 4936 5035 5036 4937 5035 5134 5135 5036 5134 5233 5234 5135 5233 5332 5333 5234 5332 5431 5432 5333 5431 5530 5531 5432 5530 5629 5630 5531 5629 5728 5729 5630 5728 5827 5828 5729 5827 5926 5927 5828 5926 6025 6026 5927 6025 6124 6125 6026 6124 6223 6224 6125 6223 6322 6323 6224 6322 6421 6422 6323 6421 6520 6521 6422 6520 6619 6620 6521 6619 6718 6719 6620 6718 6817 6818 6719 6817 6916 6917 6818 6916 7015 7016 6917 7015 7114 7115 7016 7114 7213 7214 7115 7213 7312 7313 7214 7312 7411 7412 7313 7411 7510 7511 7412 7510 7609 7610 7511 7609 7708 7709 7610 7708 7807 7808 7709 7807 7906 7907 7808 7906 8005 8006 7907 8005 8104 8105 8006 8104 8203 8204 8105 8203 8302 8303 8204 8302 8401 8402 8303 8401 8500 8501 8402 8500 8599 8600 8501 8599 8698 8699 8600 8698 8797 8798 8699 8797 8896 8897 8798 8896 8995 8996 8897 8995 9094 9095 8996 9094 9193 9194 9095 9193 9292 9293 9194 9292 9391 9392 9293 9391 9490 9491 9392 9490 9589 9590 9491 9589 9688 9689 9590 9688 9787 9788 9689 9787 9886 9887 9788 9886 9985 9986 9887 9985 10084 10085 9986 10084 10183 10184 10085 10183 10282 10283 10184 10282 10381 10382 10283 10381 10480 10481 10382 10480 10579 10580 10481 10579 10678 10679 10580 10678 10777 10778 10679 10777 10876 10877 10778 10876 10975 10976 10877 10975 11074 11075 10976 11074 11173 11174 11075 11173 11272 11273 11174 11272 11371 11372 11273 11371 11470 11471 11372 11470 11569 11570 11471 11569 11668 11669 11570 11668 11767 11768 11669 11767 11866 11867 11768 11866 11965 11966 11867 11965 12064 12065 11966 12064 12163 12164 12065 12163 12262 12263 12164 12262 12361 12362 12263 12361 12460 12461 12362 12460 12559 12560 12461 12559 12658 12659 12560 12658 12757 12758 12659 12757 12856 12857 12758 12856 12955 12956 12857 12955 13054 13055 12956 13054 13153 13154 13055 13153 13252 13253 13154 13252 13351 13352 13253 13351 13450 13451 13352 13450 13549 13550 13451 13549 13648 13649 13550 13648 13747 13748 13649 13747 13846 13847 13748 13846 13945 13946 13847 13945 14044 14045 13946 14044 14143 14144 14045 14143 14242 14243 14144 14242 14341 14342 14243 14341 14440 14441 14342 14440 14539 14540 14441 14539 14638 14639 14540 14638 14737 14738 14639 14737 14836 14837 14738 14836 14935 14936 14837 14935 15034 15035 14936 15034 429 430 15035 491 1868 1869 490 1868 1967 1968 1869 1967 2066 2067 1968 2066 2165 2166 2067 2165 2264 2265 2166 2264 2363 2364 2265 2363 2462 2463 2364 2462 2561 2562 2463 2561 2660 2661 2562 2660 2759 2760 2661 2759 2858 2859 2760 2858 2957 2958 2859 2957 3056 3057 2958 3056 3155 3156 3057 3155 3254 3255 3156 3254 3353 3354 3255 3353 3452 3453 3354 3452 3551 3552 3453 3551 3650 3651 3552 3650 3749 3750 3651 3749 3848 3849 3750 3848 3947 3948 3849 3947 4046 4047 3948 4046 4145 4146 4047 4145 4244 4245 4146 4244 4343 4344 4245 4343 4442 4443 4344 4442 4541 4542 4443 4541 4640 4641 4542 4640 4739 4740 4641 4739 4838 4839 4740 4838 4937 4938 4839 4937 5036 5037 4938 5036 5135 5136 5037 5135 5234 5235 5136 5234 5333 5334 5235 5333 5432 5433 5334 5432 5531 5532 5433 5531 5630 5631 5532 5630 5729 5730 5631 5729 5828 5829 5730 5828 5927 5928 5829 5927 6026 6027 5928 6026 6125 6126 6027 6125 6224 6225 6126 6224 6323 6324 6225 6323 6422 6423 6324 6422 6521 6522 6423 6521 6620 6621 6522 6620 6719 6720 6621 6719 6818 6819 6720 6818 6917 6918 6819 6917 7016 7017 6918 7016 7115 7116 7017 7115 7214 7215 7116 7214 7313 7314 7215 7313 7412 7413 7314 7412 7511 7512 7413 7511 7610 7611 7512 7610 7709 7710 7611 7709 7808 7809 7710 7808 7907 7908 7809 7907 8006 8007 7908 8006 8105 8106 8007 8105 8204 8205 8106 8204 8303 8304 8205 8303 8402 8403 8304 8402 8501 8502 8403 8501 8600 8601 8502 8600 8699 8700 8601 8699 8798 8799 8700 8798 8897 8898 8799 8897 8996 8997 8898 8996 9095 9096 8997 9095 9194 9195 9096 9194 9293 9294 9195 9293 9392 9393 9294 9392 9491 9492 9393 9491 9590 9591 9492 9590 9689 9690 9591 9689 9788 9789 9690 9788 9887 9888 9789 9887 9986 9987 9888 9986 10085 10086 9987 10085 10184 10185 10086 10184 10283 10284 10185 10283 10382 10383 10284 10382 10481 10482 10383 10481 10580 10581 10482 10580 10679 10680 10581 10679 10778 10779 10680 10778 10877 10878 10779 10877 10976 10977 10878 10976 11075 11076 10977 11075 11174 11175 11076 11174 11273 11274 11175 11273 11372 11373 11274 11372 11471 11472 11373 11471 11570 11571 11472 11570 11669 11670 11571 11669 11768 11769 11670 11768 11867 11868 11769 11867 11966 11967 11868 11966 12065 12066 11967 12065 12164 12165 12066 12164 12263 12264 12165 12263 12362 12363 12264 12362 12461 12462 12363 12461 12560 12561 12462 12560 12659 12660 12561 12659 12758 12759 12660 12758 12857 12858 12759 12857 12956 12957 12858 12956 13055 13056 12957 13055 13154 13155 13056 13154 13253 13254 13155 13253 13352 13353 13254 13352 13451 13452 13353 13451 13550 13551 13452 13550 13649 13650 13551 13649 13748 13749 13650 13748 13847 13848 13749 13847 13946 13947 13848 13946 14045 14046 13947 14045 14144 14145 14046 14144 14243 14244 14145 14243 14342 14343 14244 14342 14441 14442 14343 14441 14540 14541 14442 14540 14639 14640 14541 14639 14738 14739 14640 14738 14837 14838 14739 14837 14936 14937 14838 14936 15035 15036 14937 15035 430 431 15036 490 1869 1870 489 1869 1968 1969 1870 1968 2067 2068 1969 2067 2166 2167 2068 2166 2265 2266 2167 2265 2364 2365 2266 2364 2463 2464 2365 2463 2562 2563 2464 2562 2661 2662 2563 2661 2760 2761 2662 2760 2859 2860 2761 2859 2958 2959 2860 2958 3057 3058 2959 3057 3156 3157 3058 3156 3255 3256 3157 3255 3354 3355 3256 3354 3453 3454 3355 3453 3552 3553 3454 3552 3651 3652 3553 3651 3750 3751 3652 3750 3849 3850 3751 3849 3948 3949 3850 3948 4047 4048 3949 4047 4146 4147 4048 4146 4245 4246 4147 4245 4344 4345 4246 4344 4443 4444 4345 4443 4542 4543 4444 4542 4641 4642 4543 4641 4740 4741 4642 4740 4839 4840 4741 4839 4938 4939 4840 4938 5037 5038 4939 5037 5136 5137 5038 5136 5235 5236 5137 5235 5334 5335 5236 5334 5433 5434 5335 5433 5532 5533 5434 5532 5631 5632 5533 5631 5730 5731 5632 5730 5829 5830 5731 5829 5928 5929 5830 5928 6027 6028 5929 6027 6126 6127 6028 6126 6225 6226 6127 6225 6324 6325 6226 6324 6423 6424 6325 6423 6522 6523 6424 6522 6621 6622 6523 6621 6720 6721 6622 6720 6819 6820 6721 6819 6918 6919 6820 6918 7017 7018 6919 7017 7116 7117 7018 7116 7215 7216 7117 7215 7314 7315 7216 7314 7413 7414 7315 7413 7512 7513 7414 7512 7611 7612 7513 7611 7710 7711 7612 7710 7809 7810 7711 7809 7908 7909 7810 7908 8007 8008 7909 8007 8106 8107 8008 8106 8205 8206 8107 8205 8304 8305 8206 8304 8403 8404 8305 8403 8502 8503 8404 8502 8601 8602 8503 8601 8700 8701 8602 8700 8799 8800 8701 8799 8898 8899 8800 8898 8997 8998 8899 8997 9096 9097 8998 9096 9195 9196 9097 9195 9294 9295 9196 9294 9393 9394 9295 9393 9492 9493 9394 9492 9591 9592 9493 9591 9690 9691 9592 9690 9789 9790 9691 9789 9888 9889 9790 9888 9987 9988 9889 9987 10086 10087 9988 10086 10185 10186 10087 10185 10284 10285 10186 10284 10383 10384 10285 10383 10482 10483 10384 10482 10581 10582 10483 10581 10680 10681 10582 10680 10779 10780 10681 10779 10878 10879 10780 10878 10977 10978 10879 10977 11076 11077 10978 11076 11175 11176 11077 11175 11274 11275 11176 11274 11373 11374 11275 11373 11472 11473 11374 11472 11571 11572 11473 11571 11670 11671 11572 11670 11769 11770 11671 11769 11868 11869 11770 11868 11967 11968 11869 11967 12066 12067 11968 12066 12165 12166 12067 12165 12264 12265 12166 12264 12363 12364 12265 12363 12462 12463 12364 12462 12561 12562 12463 12561 12660 12661 12562 12660 12759 12760 12661 12759 12858 12859 12760 12858 12957 12958 12859 12957 13056 13057 12958 13056 13155 13156 13057 13155 13254 13255 13156 13254 13353 13354 13255 13353 13452 13453 13354 13452 13551 13552 13453 13551 13650 13651 13552 13650 13749 13750 13651 13749 13848 13849 13750 13848 13947 13948 13849 13947 14046 14047 13948 14046 14145 14146 14047 14145 14244 14245 14146 14244 14343 14344 14245 14343 14442 14443 14344 14442 14541 14542 14443 14541 14640 14641 14542 14640 14739 14740 14641 14739 14838 14839 14740 14838 14937 14938 14839 14937 15036 15037 14938 15036 431 432 15037 489 1870 1871 488 1870 1969 1970 1871 1969 2068 2069 1970 2068 2167 2168 2069 2167 2266 2267 2168 2266 2365 2366 2267 2365 2464 2465 2366 2464 2563 2564 2465 2563 2662 2663 2564 2662 2761 2762 2663 2761 2860 2861 2762 2860 2959 2960 2861 2959 3058 3059 2960 3058 3157 3158 3059 3157 3256 3257 3158 3256 3355 3356 3257 3355 3454 3455 3356 3454 3553 3554 3455 3553 3652 3653 3554 3652 3751 3752 3653 3751 3850 3851 3752 3850 3949 3950 3851 3949 4048 4049 3950 4048 4147 4148 4049 4147 4246 4247 4148 4246 4345 4346 4247 4345 4444 4445 4346 4444 4543 4544 4445 4543 4642 4643 4544 4642 4741 4742 4643 4741 4840 4841 4742 4840 4939 4940 4841 4939 5038 5039 4940 5038 5137 5138 5039 5137 5236 5237 5138 5236 5335 5336 5237 5335 5434 5435 5336 5434 5533 5534 5435 5533 5632 5633 5534 5632 5731 5732 5633 5731 5830 5831 5732 5830 5929 5930 5831 5929 6028 6029 5930 6028 6127 6128 6029 6127 6226 6227 6128 6226 6325 6326 6227 6325 6424 6425 6326 6424 6523 6524 6425 6523 6622 6623 6524 6622 6721 6722 6623 6721 6820 6821 6722 6820 6919 6920 6821 6919 7018 7019 6920 7018 7117 7118 7019 7117 7216 7217 7118 7216 7315 7316 7217 7315 7414 7415 7316 7414 7513 7514 7415 7513 7612 7613 7514 7612 7711 7712 7613 7711 7810 7811 7712 7810 7909 7910 7811 7909 8008 8009 7910 8008 8107 8108 8009 8107 8206 8207 8108 8206 8305 8306 8207 8305 8404 8405 8306 8404 8503 8504 8405 8503 8602 8603 8504 8602 8701 8702 8603 8701 8800 8801 8702 8800 8899 8900 8801 8899 8998 8999 8900 8998 9097 9098 8999 9097 9196 9197 9098 9196 9295 9296 9197 9295 9394 9395 9296 9394 9493 9494 9395 9493 9592 9593 9494 9592 9691 9692 9593 9691 9790 9791 9692 9790 9889 9890 9791 9889 9988 9989 9890 9988 10087 10088 9989 10087 10186 10187 10088 10186 10285 10286 10187 10285 10384 10385 10286 10384 10483 10484 10385 10483 10582 10583 10484 10582 10681 10682 10583 10681 10780 10781 10682 10780 10879 10880 10781 10879 10978 10979 10880 10978 11077 11078 10979 11077 11176 11177 11078 11176 11275 11276 11177 11275 11374 11375 11276 11374 11473 11474 11375 11473 11572 11573 11474 11572 11671 11672 11573 11671 11770 11771 11672 11770 11869 11870 11771 11869 11968 11969 11870 11968 12067 12068 11969 12067 12166 12167 12068 12166 12265 12266 12167 12265 12364 12365 12266 12364 12463 12464 12365 12463 12562 12563 12464 12562 12661 12662 12563 12661 12760 12761 12662 12760 12859 12860 12761 12859 12958 12959 12860 12958 13057 13058 12959 13057 13156 13157 13058 13156 13255 13256 13157 13255 13354 13355 13256 13354 13453 13454 13355 13453 13552 13553 13454 13552 13651 13652 13553 13651 13750 13751 13652 13750 13849 13850 13751 13849 13948 13949 13850 13948 14047 14048 13949 14047 14146 14147 14048 14146 14245 14246 14147 14245 14344 14345 14246 14344 14443 14444 14345 14443 14542 14543 14444 14542 14641 14642 14543 14641 14740 14741 14642 14740 14839 14840 14741 14839 14938 14939 14840 14938 15037 15038 14939 15037 432 433 15038 488 1871 1872 487 1871 1970 1971 1872 1970 2069 2070 1971 2069 2168 2169 2070 2168 2267 2268 2169 2267 2366 2367 2268 2366 2465 2466 2367 2465 2564 2565 2466 2564 2663 2664 2565 2663 2762 2763 2664 2762 2861 2862 2763 2861 2960 2961 2862 2960 3059 3060 2961 3059 3158 3159 3060 3158 3257 3258 3159 3257 3356 3357 3258 3356 3455 3456 3357 3455 3554 3555 3456 3554 3653 3654 3555 3653 3752 3753 3654 3752 3851 3852 3753 3851 3950 3951 3852 3950 4049 4050 3951 4049 4148 4149 4050 4148 4247 4248 4149 4247 4346 4347 4248 4346 4445 4446 4347 4445 4544 4545 4446 4544 4643 4644 4545 4643 4742 4743 4644 4742 4841 4842 4743 4841 4940 4941 4842 4940 5039 5040 4941 5039 5138 5139 5040 5138 5237 5238 5139 5237 5336 5337 5238 5336 5435 5436 5337 5435 5534 5535 5436 5534 5633 5634 5535 5633 5732 5733 5634 5732 5831 5832 5733 5831 5930 5931 5832 5930 6029 6030 5931 6029 6128 6129 6030 6128 6227 6228 6129 6227 6326 6327 6228 6326 6425 6426 6327 6425 6524 6525 6426 6524 6623 6624 6525 6623 6722 6723 6624 6722 6821 6822 6723 6821 6920 6921 6822 6920 7019 7020 6921 7019 7118 7119 7020 7118 7217 7218 7119 7217 7316 7317 7218 7316 7415 7416 7317 7415 7514 7515 7416 7514 7613 7614 7515 7613 7712 7713 7614 7712 7811 7812 7713 7811 7910 7911 7812 7910 8009 8010 7911 8009 8108 8109 8010 8108 8207 8208 8109 8207 8306 8307 8208 8306 8405 8406 8307 8405 8504 8505 8406 8504 8603 8604 8505 8603 8702 8703 8604 8702 8801 8802 8703 8801 8900 8901 8802 8900 8999 9000 8901 8999 9098 9099 9000 9098 9197 9198 9099 9197 9296 9297 9198 9296 9395 9396 9297 9395 9494 9495 9396 9494 9593 9594 9495 9593 9692 9693 9594 9692 9791 9792 9693 9791 9890 9891 9792 9890 9989 9990 9891 9989 10088 10089 9990 10088 10187 10188 10089 10187 10286 10287 10188 10286 10385 10386 10287 10385 10484 10485 10386 10484 10583 10584 10485 10583 10682 10683 10584 10682 10781 10782 10683 10781 10880 10881 10782 10880 10979 10980 10881 10979 11078 11079 10980 11078 11177 11178 11079 11177 11276 11277 11178 11276 11375 11376 11277 11375 11474 11475 11376 11474 11573 11574 11475 11573 11672 11673 11574 11672 11771 11772 11673 11771 11870 11871 11772 11870 11969 11970 11871 11969 12068 12069 11970 12068 12167 12168 12069 12167 12266 12267 12168 12266 12365 12366 12267 12365 12464 12465 12366 12464 12563 12564 12465 12563 12662 12663 12564 12662 12761 12762 12663 12761 12860 12861 12762 12860 12959 12960 12861 12959 13058 13059 12960 13058 13157 13158 13059 13157 13256 13257 13158 13256 13355 13356 13257 13355 13454 13455 13356 13454 13553 13554 13455 13553 13652 13653 13554 13652 13751 13752 13653 13751 13850 13851 13752 13850 13949 13950 13851 13949 14048 14049 13950 14048 14147 14148 14049 14147 14246 14247 14148 14246 14345 14346 14247 14345 14444 14445 14346 14444 14543 14544 14445 14543 14642 14643 14544 14642 14741 14742 14643 14741 14840 14841 14742 14840 14939 14940 14841 14939 15038 15039 14940 15038 433 434 15039 487 1872 1873 486 1872 1971 1972 1873 1971 2070 2071 1972 2070 2169 2170 2071 2169 2268 2269 2170 2268 2367 2368 2269 2367 2466 2467 2368 2466 2565 2566 2467 2565 2664 2665 2566 2664 2763 2764 2665 2763 2862 2863 2764 2862 2961 2962 2863 2961 3060 3061 2962 3060 3159 3160 3061 3159 3258 3259 3160 3258 3357 3358 3259 3357 3456 3457 3358 3456 3555 3556 3457 3555 3654 3655 3556 3654 3753 3754 3655 3753 3852 3853 3754 3852 3951 3952 3853 3951 4050 4051 3952 4050 4149 4150 4051 4149 4248 4249 4150 4248 4347 4348 4249 4347 4446 4447 4348 4446 4545 4546 4447 4545 4644 4645 4546 4644 4743 4744 4645 4743 4842 4843 4744 4842 4941 4942 4843 4941 5040 5041 4942 5040 5139 5140 5041 5139 5238 5239 5140 5238 5337 5338 5239 5337 5436 5437 5338 5436 5535 5536 5437 5535 5634 5635 5536 5634 5733 5734 5635 5733 5832 5833 5734 5832 5931 5932 5833 5931 6030 6031 5932 6030 6129 6130 6031 6129 6228 6229 6130 6228 6327 6328 6229 6327 6426 6427 6328 6426 6525 6526 6427 6525 6624 6625 6526 6624 6723 6724 6625 6723 6822 6823 6724 6822 6921 6922 6823 6921 7020 7021 6922 7020 7119 7120 7021 7119 7218 7219 7120 7218 7317 7318 7219 7317 7416 7417 7318 7416 7515 7516 7417 7515 7614 7615 7516 7614 7713 7714 7615 7713 7812 7813 7714 7812 7911 7912 7813 7911 8010 8011 7912 8010 8109 8110 8011 8109 8208 8209 8110 8208 8307 8308 8209 8307 8406 8407 8308 8406 8505 8506 8407 8505 8604 8605 8506 8604 8703 8704 8605 8703 8802 8803 8704 8802 8901 8902 8803 8901 9000 9001 8902 9000 9099 9100 9001 9099 9198 9199 9100 9198 9297 9298 9199 9297 9396 9397 9298 9396 9495 9496 9397 9495 9594 9595 9496 9594 9693 9694 9595 9693 9792 9793 9694 9792 9891 9892 9793 9891 9990 9991 9892 9990 10089 10090 9991 10089 10188 10189 10090 10188 10287 10288 10189 10287 10386 10387 10288 10386 10485 10486 10387 10485 10584 10585 10486 10584 10683 10684 10585 10683 10782 10783 10684 10782 10881 10882 10783 10881 10980 10981 10882 10980 11079 11080 10981 11079 11178 11179 11080 11178 11277 11278 11179 11277 11376 11377 11278 11376 11475 11476 11377 11475 11574 11575 11476 11574 11673 11674 11575 11673 11772 11773 11674 11772 11871 11872 11773 11871 11970 11971 11872 11970 12069 12070 11971 12069 12168 12169 12070 12168 12267 12268 12169 12267 12366 12367 12268 12366 12465 12466 12367 12465 12564 12565 12466 12564 12663 12664 12565 12663 12762 12763 12664 12762 12861 12862 12763 12861 12960 12961 12862 12960 13059 13060 12961 13059 13158 13159 13060 13158 13257 13258 13159 13257 13356 13357 13258 13356 13455 13456 13357 13455 13554 13555 13456 13554 13653 13654 13555 13653 13752 13753 13654 13752 13851 13852 13753 13851 13950 13951 13852 13950 14049 14050 13951 14049 14148 14149 14050 14148 14247 14248 14149 14247 14346 14347 14248 14346 14445 14446 14347 14445 14544 14545 14446 14544 14643 14644 14545 14643 14742 14743 14644 14742 14841 14842 14743 14841 14940 14941 14842 14940 15039 15040 14941 15039 434 435 15040 486 1873 1874 485 1873 1972 1973 1874 1972 2071 2072 1973 2071 2170 2171 2072 2170 2269 2270 2171 2269 2368 2369 2270 2368 2467 2468 2369 2467 2566 2567 2468 2566 2665 2666 2567 2665 2764 2765 2666 2764 2863 2864 2765 2863 2962 2963 2864 2962 3061 3062 2963 3061 3160 3161 3062 3160 3259 3260 3161 3259 3358 3359 3260 3358 3457 3458 3359 3457 3556 3557 3458 3556 3655 3656 3557 3655 3754 3755 3656 3754 3853 3854 3755 3853 3952 3953 3854 3952 4051 4052 3953 4051 4150 4151 4052 4150 4249 4250 4151 4249 4348 4349 4250 4348 4447 4448 4349 4447 4546 4547 4448 4546 4645 4646 4547 4645 4744 4745 4646 4744 4843 4844 4745 4843 4942 4943 4844 4942 5041 5042 4943 5041 5140 5141 5042 5140 5239 5240 5141 5239 5338 5339 5240 5338 5437 5438 5339 5437 5536 5537 5438 5536 5635 5636 5537 5635 5734 5735 5636 5734 5833 5834 5735 5833 5932 5933 5834 5932 6031 6032 5933 6031 6130 6131 6032 6130 6229 6230 6131 6229 6328 6329 6230 6328 6427 6428 6329 6427 6526 6527 6428 6526 6625 6626 6527 6625 6724 6725 6626 6724 6823 6824 6725 6823 6922 6923 6824 6922 7021 7022 6923 7021 7120 7121 7022 7120 7219 7220 7121 7219 7318 7319 7220 7318 7417 7418 7319 7417 7516 7517 7418 7516 7615 7616 7517 7615 7714 7715 7616 7714 7813 7814 7715 7813 7912 7913 7814 7912 8011 8012 7913 8011 8110 8111 8012 8110 8209 8210 8111 8209 8308 8309 8210 8308 8407 8408 8309 8407 8506 8507 8408 8506 8605 8606 8507 8605 8704 8705 8606 8704 8803 8804 8705 8803 8902 8903 8804 8902 9001 9002 8903 9001 9100 9101 9002 9100 9199 9200 9101 9199 9298 9299 9200 9298 9397 9398 9299 9397 9496 9497 9398 9496 9595 9596 9497 9595 9694 9695 9596 9694 9793 9794 9695 9793 9892 9893 9794 9892 9991 9992 9893 9991 10090 10091 9992 10090 10189 10190 10091 10189 10288 10289 10190 10288 10387 10388 10289 10387 10486 10487 10388 10486 10585 10586 10487 10585 10684 10685 10586 10684 10783 10784 10685 10783 10882 10883 10784 10882 10981 10982 10883 10981 11080 11081 10982 11080 11179 11180 11081 11179 11278 11279 11180 11278 11377 11378 11279 11377 11476 11477 11378 11476 11575 11576 11477 11575 11674 11675 11576 11674 11773 11774 11675 11773 11872 11873 11774 11872 11971 11972 11873 11971 12070 12071 11972 12070 12169 12170 12071 12169 12268 12269 12170 12268 12367 12368 12269 12367 12466 12467 12368 12466 12565 12566 12467 12565 12664 12665 12566 12664 12763 12764 12665 12763 12862 12863 12764 12862 12961 12962 12863 12961 13060 13061 12962 13060 13159 13160 13061 13159 13258 13259 13160 13258 13357 13358 13259 13357 13456 13457 13358 13456 13555 13556 13457 13555 13654 13655 13556 13654 13753 13754 13655 13753 13852 13853 13754 13852 13951 13952 13853 13951 14050 14051 13952 14050 14149 14150 14051 14149 14248 14249 14150 14248 14347 14348 14249 14347 14446 14447 14348 14446 14545 14546 14447 14545 14644 14645 14546 14644 14743 14744 14645 14743 14842 14843 14744 14842 14941 14942 14843 14941 15040 15041 14942 15040 435 436 15041 485 1874 1875 484 1874 1973 1974 1875 1973 2072 2073 1974 2072 2171 2172 2073 2171 2270 2271 2172 2270 2369 2370 2271 2369 2468 2469 2370 2468 2567 2568 2469 2567 2666 2667 2568 2666 2765 2766 2667 2765 2864 2865 2766 2864 2963 2964 2865 2963 3062 3063 2964 3062 3161 3162 3063 3161 3260 3261 3162 3260 3359 3360 3261 3359 3458 3459 3360 3458 3557 3558 3459 3557 3656 3657 3558 3656 3755 3756 3657 3755 3854 3855 3756 3854 3953 3954 3855 3953 4052 4053 3954 4052 4151 4152 4053 4151 4250 4251 4152 4250 4349 4350 4251 4349 4448 4449 4350 4448 4547 4548 4449 4547 4646 4647 4548 4646 4745 4746 4647 4745 4844 4845 4746 4844 4943 4944 4845 4943 5042 5043 4944 5042 5141 5142 5043 5141 5240 5241 5142 5240 5339 5340 5241 5339 5438 5439 5340 5438 5537 5538 5439 5537 5636 5637 5538 5636 5735 5736 5637 5735 5834 5835 5736 5834 5933 5934 5835 5933 6032 6033 5934 6032 6131 6132 6033 6131 6230 6231 6132 6230 6329 6330 6231 6329 6428 6429 6330 6428 6527 6528 6429 6527 6626 6627 6528 6626 6725 6726 6627 6725 6824 6825 6726 6824 6923 6924 6825 6923 7022 7023 6924 7022 7121 7122 7023 7121 7220 7221 7122 7220 7319 7320 7221 7319 7418 7419 7320 7418 7517 7518 7419 7517 7616 7617 7518 7616 7715 7716 7617 7715 7814 7815 7716 7814 7913 7914 7815 7913 8012 8013 7914 8012 8111 8112 8013 8111 8210 8211 8112 8210 8309 8310 8211 8309 8408 8409 8310 8408 8507 8508 8409 8507 8606 8607 8508 8606 8705 8706 8607 8705 8804 8805 8706 8804 8903 8904 8805 8903 9002 9003 8904 9002 9101 9102 9003 9101 9200 9201 9102 9200 9299 9300 9201 9299 9398 9399 9300 9398 9497 9498 9399 9497 9596 9597 9498 9596 9695 9696 9597 9695 9794 9795 9696 9794 9893 9894 9795 9893 9992 9993 9894 9992 10091 10092 9993 10091 10190 10191 10092 10190 10289 10290 10191 10289 10388 10389 10290 10388 10487 10488 10389 10487 10586 10587 10488 10586 10685 10686 10587 10685 10784 10785 10686 10784 10883 10884 10785 10883 10982 10983 10884 10982 11081 11082 10983 11081 11180 11181 11082 11180 11279 11280 11181 11279 11378 11379 11280 11378 11477 11478 11379 11477 11576 11577 11478 11576 11675 11676 11577 11675 11774 11775 11676 11774 11873 11874 11775 11873 11972 11973 11874 11972 12071 12072 11973 12071 12170 12171 12072 12170 12269 12270 12171 12269 12368 12369 12270 12368 12467 12468 12369 12467 12566 12567 12468 12566 12665 12666 12567 12665 12764 12765 12666 12764 12863 12864 12765 12863 12962 12963 12864 12962 13061 13062 12963 13061 13160 13161 13062 13160 13259 13260 13161 13259 13358 13359 13260 13358 13457 13458 13359 13457 13556 13557 13458 13556 13655 13656 13557 13655 13754 13755 13656 13754 13853 13854 13755 13853 13952 13953 13854 13952 14051 14052 13953 14051 14150 14151 14052 14150 14249 14250 14151 14249 14348 14349 14250 14348 14447 14448 14349 14447 14546 14547 14448 14546 14645 14646 14547 14645 14744 14745 14646 14744 14843 14844 14745 14843 14942 14943 14844 14942 15041 15042 14943 15041 436 437 15042 484 1875 1876 483 1875 1974 1975 1876 1974 2073 2074 1975 2073 2172 2173 2074 2172 2271 2272 2173 2271 2370 2371 2272 2370 2469 2470 2371 2469 2568 2569 2470 2568 2667 2668 2569 2667 2766 2767 2668 2766 2865 2866 2767 2865 2964 2965 2866 2964 3063 3064 2965 3063 3162 3163 3064 3162 3261 3262 3163 3261 3360 3361 3262 3360 3459 3460 3361 3459 3558 3559 3460 3558 3657 3658 3559 3657 3756 3757 3658 3756 3855 3856 3757 3855 3954 3955 3856 3954 4053 4054 3955 4053 4152 4153 4054 4152 4251 4252 4153 4251 4350 4351 4252 4350 4449 4450 4351 4449 4548 4549 4450 4548 4647 4648 4549 4647 4746 4747 4648 4746 4845 4846 4747 4845 4944 4945 4846 4944 5043 5044 4945 5043 5142 5143 5044 5142 5241 5242 5143 5241 5340 5341 5242 5340 5439 5440 5341 5439 5538 5539 5440 5538 5637 5638 5539 5637 5736 5737 5638 5736 5835 5836 5737 5835 5934 5935 5836 5934 6033 6034 5935 6033 6132 6133 6034 6132 6231 6232 6133 6231 6330 6331 6232 6330 6429 6430 6331 6429 6528 6529 6430 6528 6627 6628 6529 6627 6726 6727 6628 6726 6825 6826 6727 6825 6924 6925 6826 6924 7023 7024 6925 7023 7122 7123 7024 7122 7221 7222 7123 7221 7320 7321 7222 7320 7419 7420 7321 7419 7518 7519 7420 7518 7617 7618 7519 7617 7716 7717 7618 7716 7815 7816 7717 7815 7914 7915 7816 7914 8013 8014 7915 8013 8112 8113 8014 8112 8211 8212 8113 8211 8310 8311 8212 8310 8409 8410 8311 8409 8508 8509 8410 8508 8607 8608 8509 8607 8706 8707 8608 8706 8805 8806 8707 8805 8904 8905 8806 8904 9003 9004 8905 9003 9102 9103 9004 9102 9201 9202 9103 9201 9300 9301 9202 9300 9399 9400 9301 9399 9498 9499 9400 9498 9597 9598 9499 9597 9696 9697 9598 9696 9795 9796 9697 9795 9894 9895 9796 9894 9993 9994 9895 9993 10092 10093 9994 10092 10191 10192 10093 10191 10290 10291 10192 10290 10389 10390 10291 10389 10488 10489 10390 10488 10587 10588 10489 10587 10686 10687 10588 10686 10785 10786 10687 10785 10884 10885 10786 10884 10983 10984 10885 10983 11082 11083 10984 11082 11181 11182 11083 11181 11280 11281 11182 11280 11379 11380 11281 11379 11478 11479 11380 11478 11577 11578 11479 11577 11676 11677 11578 11676 11775 11776 11677 11775 11874 11875 11776 11874 11973 11974 11875 11973 12072 12073 11974 12072 12171 12172 12073 12171 12270 12271 12172 12270 12369 12370 12271 12369 12468 12469 12370 12468 12567 12568 12469 12567 12666 12667 12568 12666 12765 12766 12667 12765 12864 12865 12766 12864 12963 12964 12865 12963 13062 13063 12964 13062 13161 13162 13063 13161 13260 13261 13162 13260 13359 13360 13261 13359 13458 13459 13360 13458 13557 13558 13459 13557 13656 13657 13558 13656 13755 13756 13657 13755 13854 13855 13756 13854 13953 13954 13855 13953 14052 14053 13954 14052 14151 14152 14053 14151 14250 14251 14152 14250 14349 14350 14251 14349 14448 14449 14350 14448 14547 14548 14449 14547 14646 14647 14548 14646 14745 14746 14647 14745 14844 14845 14746 14844 14943 14944 14845 14943 15042 15043 14944 15042 437 438 15043 483 1876 1877 482 1876 1975 1976 1877 1975 2074 2075 1976 2074 2173 2174 2075 2173 2272 2273 2174 2272 2371 2372 2273 2371 2470 2471 2372 2470 2569 2570 2471 2569 2668 2669 2570 2668 2767 2768 2669 2767 2866 2867 2768 2866 2965 2966 2867 2965 3064 3065 2966 3064 3163 3164 3065 3163 3262 3263 3164 3262 3361 3362 3263 3361 3460 3461 3362 3460 3559 3560 3461 3559 3658 3659 3560 3658 3757 3758 3659 3757 3856 3857 3758 3856 3955 3956 3857 3955 4054 4055 3956 4054 4153 4154 4055 4153 4252 4253 4154 4252 4351 4352 4253 4351 4450 4451 4352 4450 4549 4550 4451 4549 4648 4649 4550 4648 4747 4748 4649 4747 4846 4847 4748 4846 4945 4946 4847 4945 5044 5045 4946 5044 5143 5144 5045 5143 5242 5243 5144 5242 5341 5342 5243 5341 5440 5441 5342 5440 5539 5540 5441 5539 5638 5639 5540 5638 5737 5738 5639 5737 5836 5837 5738 5836 5935 5936 5837 5935 6034 6035 5936 6034 6133 6134 6035 6133 6232 6233 6134 6232 6331 6332 6233 6331 6430 6431 6332 6430 6529 6530 6431 6529 6628 6629 6530 6628 6727 6728 6629 6727 6826 6827 6728 6826 6925 6926 6827 6925 7024 7025 6926 7024 7123 7124 7025 7123 7222 7223 7124 7222 7321 7322 7223 7321 7420 7421 7322 7420 7519 7520 7421 7519 7618 7619 7520 7618 7717 7718 7619 7717 7816 7817 7718 7816 7915 7916 7817 7915 8014 8015 7916 8014 8113 8114 8015 8113 8212 8213 8114 8212 8311 8312 8213 8311 8410 8411 8312 8410 8509 8510 8411 8509 8608 8609 8510 8608 8707 8708 8609 8707 8806 8807 8708 8806 8905 8906 8807 8905 9004 9005 8906 9004 9103 9104 9005 9103 9202 9203 9104 9202 9301 9302 9203 9301 9400 9401 9302 9400 9499 9500 9401 9499 9598 9599 9500 9598 9697 9698 9599 9697 9796 9797 9698 9796 9895 9896 9797 9895 9994 9995 9896 9994 10093 10094 9995 10093 10192 10193 10094 10192 10291 10292 10193 10291 10390 10391 10292 10390 10489 10490 10391 10489 10588 10589 10490 10588 10687 10688 10589 10687 10786 10787 10688 10786 10885 10886 10787 10885 10984 10985 10886 10984 11083 11084 10985 11083 11182 11183 11084 11182 11281 11282 11183 11281 11380 11381 11282 11380 11479 11480 11381 11479 11578 11579 11480 11578 11677 11678 11579 11677 11776 11777 11678 11776 11875 11876 11777 11875 11974 11975 11876 11974 12073 12074 11975 12073 12172 12173 12074 12172 12271 12272 12173 12271 12370 12371 12272 12370 12469 12470 12371 12469 12568 12569 12470 12568 12667 12668 12569 12667 12766 12767 12668 12766 12865 12866 12767 12865 12964 12965 12866 12964 13063 13064 12965 13063 13162 13163 13064 13162 13261 13262 13163 13261 13360 13361 13262 13360 13459 13460 13361 13459 13558 13559 13460 13558 13657 13658 13559 13657 13756 13757 13658 13756 13855 13856 13757 13855 13954 13955 13856 13954 14053 14054 13955 14053 14152 14153 14054 14152 14251 14252 14153 14251 14350 14351 14252 14350 14449 14450 14351 14449 14548 14549 14450 14548 14647 14648 14549 14647 14746 14747 14648 14746 14845 14846 14747 14845 14944 14945 14846 14944 15043 15044 14945 15043 438 439 15044 482 1877 1878 481 1877 1976 1977 1878 1976 2075 2076 1977 2075 2174 2175 2076 2174 2273 2274 2175 2273 2372 2373 2274 2372 2471 2472 2373 2471 2570 2571 2472 2570 2669 2670 2571 2669 2768 2769 2670 2768 2867 2868 2769 2867 2966 2967 2868 2966 3065 3066 2967 3065 3164 3165 3066 3164 3263 3264 3165 3263 3362 3363 3264 3362 3461 3462 3363 3461 3560 3561 3462 3560 3659 3660 3561 3659 3758 3759 3660 3758 3857 3858 3759 3857 3956 3957 3858 3956 4055 4056 3957 4055 4154 4155 4056 4154 4253 4254 4155 4253 4352 4353 4254 4352 4451 4452 4353 4451 4550 4551 4452 4550 4649 4650 4551 4649 4748 4749 4650 4748 4847 4848 4749 4847 4946 4947 4848 4946 5045 5046 4947 5045 5144 5145 5046 5144 5243 5244 5145 5243 5342 5343 5244 5342 5441 5442 5343 5441 5540 5541 5442 5540 5639 5640 5541 5639 5738 5739 5640 5738 5837 5838 5739 5837 5936 5937 5838 5936 6035 6036 5937 6035 6134 6135 6036 6134 6233 6234 6135 6233 6332 6333 6234 6332 6431 6432 6333 6431 6530 6531 6432 6530 6629 6630 6531 6629 6728 6729 6630 6728 6827 6828 6729 6827 6926 6927 6828 6926 7025 7026 6927 7025 7124 7125 7026 7124 7223 7224 7125 7223 7322 7323 7224 7322 7421 7422 7323 7421 7520 7521 7422 7520 7619 7620 7521 7619 7718 7719 7620 7718 7817 7818 7719 7817 7916 7917 7818 7916 8015 8016 7917 8015 8114 8115 8016 8114 8213 8214 8115 8213 8312 8313 8214 8312 8411 8412 8313 8411 8510 8511 8412 8510 8609 8610 8511 8609 8708 8709 8610 8708 8807 8808 8709 8807 8906 8907 8808 8906 9005 9006 8907 9005 9104 9105 9006 9104 9203 9204 9105 9203 9302 9303 9204 9302 9401 9402 9303 9401 9500 9501 9402 9500 9599 9600 9501 9599 9698 9699 9600 9698 9797 9798 9699 9797 9896 9897 9798 9896 9995 9996 9897 9995 10094 10095 9996 10094 10193 10194 10095 10193 10292 10293 10194 10292 10391 10392 10293 10391 10490 10491 10392 10490 10589 10590 10491 10589 10688 10689 10590 10688 10787 10788 10689 10787 10886 10887 10788 10886 10985 10986 10887 10985 11084 11085 10986 11084 11183 11184 11085 11183 11282 11283 11184 11282 11381 11382 11283 11381 11480 11481 11382 11480 11579 11580 11481 11579 11678 11679 11580 11678 11777 11778 11679 11777 11876 11877 11778 11876 11975 11976 11877 11975 12074 12075 11976 12074 12173 12174 12075 12173 12272 12273 12174 12272 12371 12372 12273 12371 12470 12471 12372 12470 12569 12570 12471 12569 12668 12669 12570 12668 12767 12768 12669 12767 12866 12867 12768 12866 12965 12966 12867 12965 13064 13065 12966 13064 13163 13164 13065 13163 13262 13263 13164 13262 13361 13362 13263 13361 13460 13461 13362 13460 13559 13560 13461 13559 13658 13659 13560 13658 13757 13758 13659 13757 13856 13857 13758 13856 13955 13956 13857 13955 14054 14055 13956 14054 14153 14154 14055 14153 14252 14253 14154 14252 14351 14352 14253 14351 14450 14451 14352 14450 14549 14550 14451 14549 14648 14649 14550 14648 14747 14748 14649 14747 14846 14847 14748 14846 14945 14946 14847 14945 15044 15045 14946 15044 439 440 15045 481 1878 1879 480 1878 1977 1978 1879 1977 2076 2077 1978 2076 2175 2176 2077 2175 2274 2275 2176 2274 2373 2374 2275 2373 2472 2473 2374 2472 2571 2572 2473 2571 2670 2671 2572 2670 2769 2770 2671 2769 2868 2869 2770 2868 2967 2968 2869 2967 3066 3067 2968 3066 3165 3166 3067 3165 3264 3265 3166 3264 3363 3364 3265 3363 3462 3463 3364 3462 3561 3562 3463 3561 3660 3661 3562 3660 3759 3760 3661 3759 3858 3859 3760 3858 3957 3958 3859 3957 4056 4057 3958 4056 4155 4156 4057 4155 4254 4255 4156 4254 4353 4354 4255 4353 4452 4453 4354 4452 4551 4552 4453 4551 4650 4651 4552 4650 4749 4750 4651 4749 4848 4849 4750 4848 4947 4948 4849 4947 5046 5047 4948 5046 5145 5146 5047 5145 5244 5245 5146 5244 5343 5344 5245 5343 5442 5443 5344 5442 5541 5542 5443 5541 5640 5641 5542 5640 5739 5740 5641 5739 5838 5839 5740 5838 5937 5938 5839 5937 6036 6037 5938 6036 6135 6136 6037 6135 6234 6235 6136 6234 6333 6334 6235 6333 6432 6433 6334 6432 6531 6532 6433 6531 6630 6631 6532 6630 6729 6730 6631 6729 6828 6829 6730 6828 6927 6928 6829 6927 7026 7027 6928 7026 7125 7126 7027 7125 7224 7225 7126 7224 7323 7324 7225 7323 7422 7423 7324 7422 7521 7522 7423 7521 7620 7621 7522 7620 7719 7720 7621 7719 7818 7819 7720 7818 7917 7918 7819 7917 8016 8017 7918 8016 8115 8116 8017 8115 8214 8215 8116 8214 8313 8314 8215 8313 8412 8413 8314 8412 8511 8512 8413 8511 8610 8611 8512 8610 8709 8710 8611 8709 8808 8809 8710 8808 8907 8908 8809 8907 9006 9007 8908 9006 9105 9106 9007 9105 9204 9205 9106 9204 9303 9304 9205 9303 9402 9403 9304 9402 9501 9502 9403 9501 9600 9601 9502 9600 9699 9700 9601 9699 9798 9799 9700 9798 9897 9898 9799 9897 9996 9997 9898 9996 10095 10096 9997 10095 10194 10195 10096 10194 10293 10294 10195 10293 10392 10393 10294 10392 10491 10492 10393 10491 10590 10591 10492 10590 10689 10690 10591 10689 10788 10789 10690 10788 10887 10888 10789 10887 10986 10987 10888 10986 11085 11086 10987 11085 11184 11185 11086 11184 11283 11284 11185 11283 11382 11383 11284 11382 11481 11482 11383 11481 11580 11581 11482 11580 11679 11680 11581 11679 11778 11779 11680 11778 11877 11878 11779 11877 11976 11977 11878 11976 12075 12076 11977 12075 12174 12175 12076 12174 12273 12274 12175 12273 12372 12373 12274 12372 12471 12472 12373 12471 12570 12571 12472 12570 12669 12670 12571 12669 12768 12769 12670 12768 12867 12868 12769 12867 12966 12967 12868 12966 13065 13066 12967 13065 13164 13165 13066 13164 13263 13264 13165 13263 13362 13363 13264 13362 13461 13462 13363 13461 13560 13561 13462 13560 13659 13660 13561 13659 13758 13759 13660 13758 13857 13858 13759 13857 13956 13957 13858 13956 14055 14056 13957 14055 14154 14155 14056 14154 14253 14254 14155 14253 14352 14353 14254 14352 14451 14452 14353 14451 14550 14551 14452 14550 14649 14650 14551 14649 14748 14749 14650 14748 14847 14848 14749 14847 14946 14947 14848 14946 15045 15046 14947 15045 440 441 15046 480 1879 1880 479 1879 1978 1979 1880 1978 2077 2078 1979 2077 2176 2177 2078 2176 2275 2276 2177 2275 2374 2375 2276 2374 2473 2474 2375 2473 2572 2573 2474 2572 2671 2672 2573 2671 2770 2771 2672 2770 2869 2870 2771 2869 2968 2969 2870 2968 3067 3068 2969 3067 3166 3167 3068 3166 3265 3266 3167 3265 3364 3365 3266 3364 3463 3464 3365 3463 3562 3563 3464 3562 3661 3662 3563 3661 3760 3761 3662 3760 3859 3860 3761 3859 3958 3959 3860 3958 4057 4058 3959 4057 4156 4157 4058 4156 4255 4256 4157 4255 4354 4355 4256 4354 4453 4454 4355 4453 4552 4553 4454 4552 4651 4652 4553 4651 4750 4751 4652 4750 4849 4850 4751 4849 4948 4949 4850 4948 5047 5048 4949 5047 5146 5147 5048 5146 5245 5246 5147 5245 5344 5345 5246 5344 5443 5444 5345 5443 5542 5543 5444 5542 5641 5642 5543 5641 5740 5741 5642 5740 5839 5840 5741 5839 5938 5939 5840 5938 6037 6038 5939 6037 6136 6137 6038 6136 6235 6236 6137 6235 6334 6335 6236 6334 6433 6434 6335 6433 6532 6533 6434 6532 6631 6632 6533 6631 6730 6731 6632 6730 6829 6830 6731 6829 6928 6929 6830 6928 7027 7028 6929 7027 7126 7127 7028 7126 7225 7226 7127 7225 7324 7325 7226 7324 7423 7424 7325 7423 7522 7523 7424 7522 7621 7622 7523 7621 7720 7721 7622 7720 7819 7820 7721 7819 7918 7919 7820 7918 8017 8018 7919 8017 8116 8117 8018 8116 8215 8216 8117 8215 8314 8315 8216 8314 8413 8414 8315 8413 8512 8513 8414 8512 8611 8612 8513 8611 8710 8711 8612 8710 8809 8810 8711 8809 8908 8909 8810 8908 9007 9008 8909 9007 9106 9107 9008 9106 9205 9206 9107 9205 9304 9305 9206 9304 9403 9404 9305 9403 9502 9503 9404 9502 9601 9602 9503 9601 9700 9701 9602 9700 9799 9800 9701 9799 9898 9899 9800 9898 9997 9998 9899 9997 10096 10097 9998 10096 10195 10196 10097 10195 10294 10295 10196 10294 10393 10394 10295 10393 10492 10493 10394 10492 10591 10592 10493 10591 10690 10691 10592 10690 10789 10790 10691 10789 10888 10889 10790 10888 10987 10988 10889 10987 11086 11087 10988 11086 11185 11186 11087 11185 11284 11285 11186 11284 11383 11384 11285 11383 11482 11483 11384 11482 11581 11582 11483 11581 11680 11681 11582 11680 11779 11780 11681 11779 11878 11879 11780 11878 11977 11978 11879 11977 12076 12077 11978 12076 12175 12176 12077 12175 12274 12275 12176 12274 12373 12374 12275 12373 12472 12473 12374 12472 12571 12572 12473 12571 12670 12671 12572 12670 12769 12770 12671 12769 12868 12869 12770 12868 12967 12968 12869 12967 13066 13067 12968 13066 13165 13166 13067 13165 13264 13265 13166 13264 13363 13364 13265 13363 13462 13463 13364 13462 13561 13562 13463 13561 13660 13661 13562 13660 13759 13760 13661 13759 13858 13859 13760 13858 13957 13958 13859 13957 14056 14057 13958 14056 14155 14156 14057 14155 14254 14255 14156 14254 14353 14354 14255 14353 14452 14453 14354 14452 14551 14552 14453 14551 14650 14651 14552 14650 14749 14750 14651 14749 14848 14849 14750 14848 14947 14948 14849 14947 15046 15047 14948 15046 441 442 15047 479 1880 1881 478 1880 1979 1980 1881 1979 2078 2079 1980 2078 2177 2178 2079 2177 2276 2277 2178 2276 2375 2376 2277 2375 2474 2475 2376 2474 2573 2574 2475 2573 2672 2673 2574 2672 2771 2772 2673 2771 2870 2871 2772 2870 2969 2970 2871 2969 3068 3069 2970 3068 3167 3168 3069 3167 3266 3267 3168 3266 3365 3366 3267 3365 3464 3465 3366 3464 3563 3564 3465 3563 3662 3663 3564 3662 3761 3762 3663 3761 3860 3861 3762 3860 3959 3960 3861 3959 4058 4059 3960 4058 4157 4158 4059 4157 4256 4257 4158 4256 4355 4356 4257 4355 4454 4455 4356 4454 4553 4554 4455 4553 4652 4653 4554 4652 4751 4752 4653 4751 4850 4851 4752 4850 4949 4950 4851 4949 5048 5049 4950 5048 5147 5148 5049 5147 5246 5247 5148 5246 5345 5346 5247 5345 5444 5445 5346 5444 5543 5544 5445 5543 5642 5643 5544 5642 5741 5742 5643 5741 5840 5841 5742 5840 5939 5940 5841 5939 6038 6039 5940 6038 6137 6138 6039 6137 6236 6237 6138 6236 6335 6336 6237 6335 6434 6435 6336 6434 6533 6534 6435 6533 6632 6633 6534 6632 6731 6732 6633 6731 6830 6831 6732 6830 6929 6930 6831 6929 7028 7029 6930 7028 7127 7128 7029 7127 7226 7227 7128 7226 7325 7326 7227 7325 7424 7425 7326 7424 7523 7524 7425 7523 7622 7623 7524 7622 7721 7722 7623 7721 7820 7821 7722 7820 7919 7920 7821 7919 8018 8019 7920 8018 8117 8118 8019 8117 8216 8217 8118 8216 8315 8316 8217 8315 8414 8415 8316 8414 8513 8514 8415 8513 8612 8613 8514 8612 8711 8712 8613 8711 8810 8811 8712 8810 8909 8910 8811 8909 9008 9009 8910 9008 9107 9108 9009 9107 9206 9207 9108 9206 9305 9306 9207 9305 9404 9405 9306 9404 9503 9504 9405 9503 9602 9603 9504 9602 9701 9702 9603 9701 9800 9801 9702 9800 9899 9900 9801 9899 9998 9999 9900 9998 10097 10098 9999 10097 10196 10197 10098 10196 10295 10296 10197 10295 10394 10395 10296 10394 10493 10494 10395 10493 10592 10593 10494 10592 10691 10692 10593 10691 10790 10791 10692 10790 10889 10890 10791 10889 10988 10989 10890 10988 11087 11088 10989 11087 11186 11187 11088 11186 11285 11286 11187 11285 11384 11385 11286 11384 11483 11484 11385 11483 11582 11583 11484 11582 11681 11682 11583 11681 11780 11781 11682 11780 11879 11880 11781 11879 11978 11979 11880 11978 12077 12078 11979 12077 12176 12177 12078 12176 12275 12276 12177 12275 12374 12375 12276 12374 12473 12474 12375 12473 12572 12573 12474 12572 12671 12672 12573 12671 12770 12771 12672 12770 12869 12870 12771 12869 12968 12969 12870 12968 13067 13068 12969 13067 13166 13167 13068 13166 13265 13266 13167 13265 13364 13365 13266 13364 13463 13464 13365 13463 13562 13563 13464 13562 13661 13662 13563 13661 13760 13761 13662 13760 13859 13860 13761 13859 13958 13959 13860 13958 14057 14058 13959 14057 14156 14157 14058 14156 14255 14256 14157 14255 14354 14355 14256 14354 14453 14454 14355 14453 14552 14553 14454 14552 14651 14652 14553 14651 14750 14751 14652 14750 14849 14850 14751 14849 14948 14949 14850 14948 15047 15048 14949 15047 442 443 15048 478 1881 1882 477 1881 1980 1981 1882 1980 2079 2080 1981 2079 2178 2179 2080 2178 2277 2278 2179 2277 2376 2377 2278 2376 2475 2476 2377 2475 2574 2575 2476 2574 2673 2674 2575 2673 2772 2773 2674 2772 2871 2872 2773 2871 2970 2971 2872 2970 3069 3070 2971 3069 3168 3169 3070 3168 3267 3268 3169 3267 3366 3367 3268 3366 3465 3466 3367 3465 3564 3565 3466 3564 3663 3664 3565 3663 3762 3763 3664 3762 3861 3862 3763 3861 3960 3961 3862 3960 4059 4060 3961 4059 4158 4159 4060 4158 4257 4258 4159 4257 4356 4357 4258 4356 4455 4456 4357 4455 4554 4555 4456 4554 4653 4654 4555 4653 4752 4753 4654 4752 4851 4852 4753 4851 4950 4951 4852 4950 5049 5050 4951 5049 5148 5149 5050 5148 5247 5248 5149 5247 5346 5347 5248 5346 5445 5446 5347 5445 5544 5545 5446 5544 5643 5644 5545 5643 5742 5743 5644 5742 5841 5842 5743 5841 5940 5941 5842 5940 6039 6040 5941 6039 6138 6139 6040 6138 6237 6238 6139 6237 6336 6337 6238 6336 6435 6436 6337 6435 6534 6535 6436 6534 6633 6634 6535 6633 6732 6733 6634 6732 6831 6832 6733 6831 6930 6931 6832 6930 7029 7030 6931 7029 7128 7129 7030 7128 7227 7228 7129 7227 7326 7327 7228 7326 7425 7426 7327 7425 7524 7525 7426 7524 7623 7624 7525 7623 7722 7723 7624 7722 7821 7822 7723 7821 7920 7921 7822 7920 8019 8020 7921 8019 8118 8119 8020 8118 8217 8218 8119 8217 8316 8317 8218 8316 8415 8416 8317 8415 8514 8515 8416 8514 8613 8614 8515 8613 8712 8713 8614 8712 8811 8812 8713 8811 8910 8911 8812 8910 9009 9010 8911 9009 9108 9109 9010 9108 9207 9208 9109 9207 9306 9307 9208 9306 9405 9406 9307 9405 9504 9505 9406 9504 9603 9604 9505 9603 9702 9703 9604 9702 9801 9802 9703 9801 9900 9901 9802 9900 9999 10000 9901 9999 10098 10099 10000 10098 10197 10198 10099 10197 10296 10297 10198 10296 10395 10396 10297 10395 10494 10495 10396 10494 10593 10594 10495 10593 10692 10693 10594 10692 10791 10792 10693 10791 10890 10891 10792 10890 10989 10990 10891 10989 11088 11089 10990 11088 11187 11188 11089 11187 11286 11287 11188 11286 11385 11386 11287 11385 11484 11485 11386 11484 11583 11584 11485 11583 11682 11683 11584 11682 11781 11782 11683 11781 11880 11881 11782 11880 11979 11980 11881 11979 12078 12079 11980 12078 12177 12178 12079 12177 12276 12277 12178 12276 12375 12376 12277 12375 12474 12475 12376 12474 12573 12574 12475 12573 12672 12673 12574 12672 12771 12772 12673 12771 12870 12871 12772 12870 12969 12970 12871 12969 13068 13069 12970 13068 13167 13168 13069 13167 13266 13267 13168 13266 13365 13366 13267 13365 13464 13465 13366 13464 13563 13564 13465 13563 13662 13663 13564 13662 13761 13762 13663 13761 13860 13861 13762 13860 13959 13960 13861 13959 14058 14059 13960 14058 14157 14158 14059 14157 14256 14257 14158 14256 14355 14356 14257 14355 14454 14455 14356 14454 14553 14554 14455 14553 14652 14653 14554 14652 14751 14752 14653 14751 14850 14851 14752 14850 14949 14950 14851 14949 15048 15049 14950 15048 443 444 15049 477 1882 1883 476 1882 1981 1982 1883 1981 2080 2081 1982 2080 2179 2180 2081 2179 2278 2279 2180 2278 2377 2378 2279 2377 2476 2477 2378 2476 2575 2576 2477 2575 2674 2675 2576 2674 2773 2774 2675 2773 2872 2873 2774 2872 2971 2972 2873 2971 3070 3071 2972 3070 3169 3170 3071 3169 3268 3269 3170 3268 3367 3368 3269 3367 3466 3467 3368 3466 3565 3566 3467 3565 3664 3665 3566 3664 3763 3764 3665 3763 3862 3863 3764 3862 3961 3962 3863 3961 4060 4061 3962 4060 4159 4160 4061 4159 4258 4259 4160 4258 4357 4358 4259 4357 4456 4457 4358 4456 4555 4556 4457 4555 4654 4655 4556 4654 4753 4754 4655 4753 4852 4853 4754 4852 4951 4952 4853 4951 5050 5051 4952 5050 5149 5150 5051 5149 5248 5249 5150 5248 5347 5348 5249 5347 5446 5447 5348 5446 5545 5546 5447 5545 5644 5645 5546 5644 5743 5744 5645 5743 5842 5843 5744 5842 5941 5942 5843 5941 6040 6041 5942 6040 6139 6140 6041 6139 6238 6239 6140 6238 6337 6338 6239 6337 6436 6437 6338 6436 6535 6536 6437 6535 6634 6635 6536 6634 6733 6734 6635 6733 6832 6833 6734 6832 6931 6932 6833 6931 7030 7031 6932 7030 7129 7130 7031 7129 7228 7229 7130 7228 7327 7328 7229 7327 7426 7427 7328 7426 7525 7526 7427 7525 7624 7625 7526 7624 7723 7724 7625 7723 7822 7823 7724 7822 7921 7922 7823 7921 8020 8021 7922 8020 8119 8120 8021 8119 8218 8219 8120 8218 8317 8318 8219 8317 8416 8417 8318 8416 8515 8516 8417 8515 8614 8615 8516 8614 8713 8714 8615 8713 8812 8813 8714 8812 8911 8912 8813 8911 9010 9011 8912 9010 9109 9110 9011 9109 9208 9209 9110 9208 9307 9308 9209 9307 9406 9407 9308 9406 9505 9506 9407 9505 9604 9605 9506 9604 9703 9704 9605 9703 9802 9803 9704 9802 9901 9902 9803 9901 10000 10001 9902 10000 10099 10100 10001 10099 10198 10199 10100 10198 10297 10298 10199 10297 10396 10397 10298 10396 10495 10496 10397 10495 10594 10595 10496 10594 10693 10694 10595 10693 10792 10793 10694 10792 10891 10892 10793 10891 10990 10991 10892 10990 11089 11090 10991 11089 11188 11189 11090 11188 11287 11288 11189 11287 11386 11387 11288 11386 11485 11486 11387 11485 11584 11585 11486 11584 11683 11684 11585 11683 11782 11783 11684 11782 11881 11882 11783 11881 11980 11981 11882 11980 12079 12080 11981 12079 12178 12179 12080 12178 12277 12278 12179 12277 12376 12377 12278 12376 12475 12476 12377 12475 12574 12575 12476 12574 12673 12674 12575 12673 12772 12773 12674 12772 12871 12872 12773 12871 12970 12971 12872 12970 13069 13070 12971 13069 13168 13169 13070 13168 13267 13268 13169 13267 13366 13367 13268 13366 13465 13466 13367 13465 13564 13565 13466 13564 13663 13664 13565 13663 13762 13763 13664 13762 13861 13862 13763 13861 13960 13961 13862 13960 14059 14060 13961 14059 14158 14159 14060 14158 14257 14258 14159 14257 14356 14357 14258 14356 14455 14456 14357 14455 14554 14555 14456 14554 14653 14654 14555 14653 14752 14753 14654 14752 14851 14852 14753 14851 14950 14951 14852 14950 15049 15050 14951 15049 444 445 15050 476 1883 1884 475 1883 1982 1983 1884 1982 2081 2082 1983 2081 2180 2181 2082 2180 2279 2280 2181 2279 2378 2379 2280 2378 2477 2478 2379 2477 2576 2577 2478 2576 2675 2676 2577 2675 2774 2775 2676 2774 2873 2874 2775 2873 2972 2973 2874 2972 3071 3072 2973 3071 3170 3171 3072 3170 3269 3270 3171 3269 3368 3369 3270 3368 3467 3468 3369 3467 3566 3567 3468 3566 3665 3666 3567 3665 3764 3765 3666 3764 3863 3864 3765 3863 3962 3963 3864 3962 4061 4062 3963 4061 4160 4161 4062 4160 4259 4260 4161 4259 4358 4359 4260 4358 4457 4458 4359 4457 4556 4557 4458 4556 4655 4656 4557 4655 4754 4755 4656 4754 4853 4854 4755 4853 4952 4953 4854 4952 5051 5052 4953 5051 5150 5151 5052 5150 5249 5250 5151 5249 5348 5349 5250 5348 5447 5448 5349 5447 5546 5547 5448 5546 5645 5646 5547 5645 5744 5745 5646 5744 5843 5844 5745 5843 5942 5943 5844 5942 6041 6042 5943 6041 6140 6141 6042 6140 6239 6240 6141 6239 6338 6339 6240 6338 6437 6438 6339 6437 6536 6537 6438 6536 6635 6636 6537 6635 6734 6735 6636 6734 6833 6834 6735 6833 6932 6933 6834 6932 7031 7032 6933 7031 7130 7131 7032 7130 7229 7230 7131 7229 7328 7329 7230 7328 7427 7428 7329 7427 7526 7527 7428 7526 7625 7626 7527 7625 7724 7725 7626 7724 7823 7824 7725 7823 7922 7923 7824 7922 8021 8022 7923 8021 8120 8121 8022 8120 8219 8220 8121 8219 8318 8319 8220 8318 8417 8418 8319 8417 8516 8517 8418 8516 8615 8616 8517 8615 8714 8715 8616 8714 8813 8814 8715 8813 8912 8913 8814 8912 9011 9012 8913 9011 9110 9111 9012 9110 9209 9210 9111 9209 9308 9309 9210 9308 9407 9408 9309 9407 9506 9507 9408 9506 9605 9606 9507 9605 9704 9705 9606 9704 9803 9804 9705 9803 9902 9903 9804 9902 10001 10002 9903 10001 10100 10101 10002 10100 10199 10200 10101 10199 10298 10299 10200 10298 10397 10398 10299 10397 10496 10497 10398 10496 10595 10596 10497 10595 10694 10695 10596 10694 10793 10794 10695 10793 10892 10893 10794 10892 10991 10992 10893 10991 11090 11091 10992 11090 11189 11190 11091 11189 11288 11289 11190 11288 11387 11388 11289 11387 11486 11487 11388 11486 11585 11586 11487 11585 11684 11685 11586 11684 11783 11784 11685 11783 11882 11883 11784 11882 11981 11982 11883 11981 12080 12081 11982 12080 12179 12180 12081 12179 12278 12279 12180 12278 12377 12378 12279 12377 12476 12477 12378 12476 12575 12576 12477 12575 12674 12675 12576 12674 12773 12774 12675 12773 12872 12873 12774 12872 12971 12972 12873 12971 13070 13071 12972 13070 13169 13170 13071 13169 13268 13269 13170 13268 13367 13368 13269 13367 13466 13467 13368 13466 13565 13566 13467 13565 13664 13665 13566 13664 13763 13764 13665 13763 13862 13863 13764 13862 13961 13962 13863 13961 14060 14061 13962 14060 14159 14160 14061 14159 14258 14259 14160 14258 14357 14358 14259 14357 14456 14457 14358 14456 14555 14556 14457 14555 14654 14655 14556 14654 14753 14754 14655 14753 14852 14853 14754 14852 14951 14952 14853 14951 15050 15051 14952 15050 445 446 15051 475 1884 1885 474 1884 1983 1984 1885 1983 2082 2083 1984 2082 2181 2182 2083 2181 2280 2281 2182 2280 2379 2380 2281 2379 2478 2479 2380 2478 2577 2578 2479 2577 2676 2677 2578 2676 2775 2776 2677 2775 2874 2875 2776 2874 2973 2974 2875 2973 3072 3073 2974 3072 3171 3172 3073 3171 3270 3271 3172 3270 3369 3370 3271 3369 3468 3469 3370 3468 3567 3568 3469 3567 3666 3667 3568 3666 3765 3766 3667 3765 3864 3865 3766 3864 3963 3964 3865 3963 4062 4063 3964 4062 4161 4162 4063 4161 4260 4261 4162 4260 4359 4360 4261 4359 4458 4459 4360 4458 4557 4558 4459 4557 4656 4657 4558 4656 4755 4756 4657 4755 4854 4855 4756 4854 4953 4954 4855 4953 5052 5053 4954 5052 5151 5152 5053 5151 5250 5251 5152 5250 5349 5350 5251 5349 5448 5449 5350 5448 5547 5548 5449 5547 5646 5647 5548 5646 5745 5746 5647 5745 5844 5845 5746 5844 5943 5944 5845 5943 6042 6043 5944 6042 6141 6142 6043 6141 6240 6241 6142 6240 6339 6340 6241 6339 6438 6439 6340 6438 6537 6538 6439 6537 6636 6637 6538 6636 6735 6736 6637 6735 6834 6835 6736 6834 6933 6934 6835 6933 7032 7033 6934 7032 7131 7132 7033 7131 7230 7231 7132 7230 7329 7330 7231 7329 7428 7429 7330 7428 7527 7528 7429 7527 7626 7627 7528 7626 7725 7726 7627 7725 7824 7825 7726 7824 7923 7924 7825 7923 8022 8023 7924 8022 8121 8122 8023 8121 8220 8221 8122 8220 8319 8320 8221 8319 8418 8419 8320 8418 8517 8518 8419 8517 8616 8617 8518 8616 8715 8716 8617 8715 8814 8815 8716 8814 8913 8914 8815 8913 9012 9013 8914 9012 9111 9112 9013 9111 9210 9211 9112 9210 9309 9310 9211 9309 9408 9409 9310 9408 9507 9508 9409 9507 9606 9607 9508 9606 9705 9706 9607 9705 9804 9805 9706 9804 9903 9904 9805 9903 10002 10003 9904 10002 10101 10102 10003 10101 10200 10201 10102 10200 10299 10300 10201 10299 10398 10399 10300 10398 10497 10498 10399 10497 10596 10597 10498 10596 10695 10696 10597 10695 10794 10795 10696 10794 10893 10894 10795 10893 10992 10993 10894 10992 11091 11092 10993 11091 11190 11191 11092 11190 11289 11290 11191 11289 11388 11389 11290 11388 11487 11488 11389 11487 11586 11587 11488 11586 11685 11686 11587 11685 11784 11785 11686 11784 11883 11884 11785 11883 11982 11983 11884 11982 12081 12082 11983 12081 12180 12181 12082 12180 12279 12280 12181 12279 12378 12379 12280 12378 12477 12478 12379 12477 12576 12577 12478 12576 12675 12676 12577 12675 12774 12775 12676 12774 12873 12874 12775 12873 12972 12973 12874 12972 13071 13072 12973 13071 13170 13171 13072 13170 13269 13270 13171 13269 13368 13369 13270 13368 13467 13468 13369 13467 13566 13567 13468 13566 13665 13666 13567 13665 13764 13765 13666 13764 13863 13864 13765 13863 13962 13963 13864 13962 14061 14062 13963 14061 14160 14161 14062 14160 14259 14260 14161 14259 14358 14359 14260 14358 14457 14458 14359 14457 14556 14557 14458 14556 14655 14656 14557 14655 14754 14755 14656 14754 14853 14854 14755 14853 14952 14953 14854 14952 15051 15052 14953 15051 446 447 15052 474 1885 1886 473 1885 1984 1985 1886 1984 2083 2084 1985 2083 2182 2183 2084 2182 2281 2282 2183 2281 2380 2381 2282 2380 2479 2480 2381 2479 2578 2579 2480 2578 2677 2678 2579 2677 2776 2777 2678 2776 2875 2876 2777 2875 2974 2975 2876 2974 3073 3074 2975 3073 3172 3173 3074 3172 3271 3272 3173 3271 3370 3371 3272 3370 3469 3470 3371 3469 3568 3569 3470 3568 3667 3668 3569 3667 3766 3767 3668 3766 3865 3866 3767 3865 3964 3965 3866 3964 4063 4064 3965 4063 4162 4163 4064 4162 4261 4262 4163 4261 4360 4361 4262 4360 4459 4460 4361 4459 4558 4559 4460 4558 4657 4658 4559 4657 4756 4757 4658 4756 4855 4856 4757 4855 4954 4955 4856 4954 5053 5054 4955 5053 5152 5153 5054 5152 5251 5252 5153 5251 5350 5351 5252 5350 5449 5450 5351 5449 5548 5549 5450 5548 5647 5648 5549 5647 5746 5747 5648 5746 5845 5846 5747 5845 5944 5945 5846 5944 6043 6044 5945 6043 6142 6143 6044 6142 6241 6242 6143 6241 6340 6341 6242 6340 6439 6440 6341 6439 6538 6539 6440 6538 6637 6638 6539 6637 6736 6737 6638 6736 6835 6836 6737 6835 6934 6935 6836 6934 7033 7034 6935 7033 7132 7133 7034 7132 7231 7232 7133 7231 7330 7331 7232 7330 7429 7430 7331 7429 7528 7529 7430 7528 7627 7628 7529 7627 7726 7727 7628 7726 7825 7826 7727 7825 7924 7925 7826 7924 8023 8024 7925 8023 8122 8123 8024 8122 8221 8222 8123 8221 8320 8321 8222 8320 8419 8420 8321 8419 8518 8519 8420 8518 8617 8618 8519 8617 8716 8717 8618 8716 8815 8816 8717 8815 8914 8915 8816 8914 9013 9014 8915 9013 9112 9113 9014 9112 9211 9212 9113 9211 9310 9311 9212 9310 9409 9410 9311 9409 9508 9509 9410 9508 9607 9608 9509 9607 9706 9707 9608 9706 9805 9806 9707 9805 9904 9905 9806 9904 10003 10004 9905 10003 10102 10103 10004 10102 10201 10202 10103 10201 10300 10301 10202 10300 10399 10400 10301 10399 10498 10499 10400 10498 10597 10598 10499 10597 10696 10697 10598 10696 10795 10796 10697 10795 10894 10895 10796 10894 10993 10994 10895 10993 11092 11093 10994 11092 11191 11192 11093 11191 11290 11291 11192 11290 11389 11390 11291 11389 11488 11489 11390 11488 11587 11588 11489 11587 11686 11687 11588 11686 11785 11786 11687 11785 11884 11885 11786 11884 11983 11984 11885 11983 12082 12083 11984 12082 12181 12182 12083 12181 12280 12281 12182 12280 12379 12380 12281 12379 12478 12479 12380 12478 12577 12578 12479 12577 12676 12677 12578 12676 12775 12776 12677 12775 12874 12875 12776 12874 12973 12974 12875 12973 13072 13073 12974 13072 13171 13172 13073 13171 13270 13271 13172 13270 13369 13370 13271 13369 13468 13469 13370 13468 13567 13568 13469 13567 13666 13667 13568 13666 13765 13766 13667 13765 13864 13865 13766 13864 13963 13964 13865 13963 14062 14063 13964 14062 14161 14162 14063 14161 14260 14261 14162 14260 14359 14360 14261 14359 14458 14459 14360 14458 14557 14558 14459 14557 14656 14657 14558 14656 14755 14756 14657 14755 14854 14855 14756 14854 14953 14954 14855 14953 15052 15053 14954 15052 447 448 15053 473 1886 1887 472 1886 1985 1986 1887 1985 2084 2085 1986 2084 2183 2184 2085 2183 2282 2283 2184 2282 2381 2382 2283 2381 2480 2481 2382 2480 2579 2580 2481 2579 2678 2679 2580 2678 2777 2778 2679 2777 2876 2877 2778 2876 2975 2976 2877 2975 3074 3075 2976 3074 3173 3174 3075 3173 3272 3273 3174 3272 3371 3372 3273 3371 3470 3471 3372 3470 3569 3570 3471 3569 3668 3669 3570 3668 3767 3768 3669 3767 3866 3867 3768 3866 3965 3966 3867 3965 4064 4065 3966 4064 4163 4164 4065 4163 4262 4263 4164 4262 4361 4362 4263 4361 4460 4461 4362 4460 4559 4560 4461 4559 4658 4659 4560 4658 4757 4758 4659 4757 4856 4857 4758 4856 4955 4956 4857 4955 5054 5055 4956 5054 5153 5154 5055 5153 5252 5253 5154 5252 5351 5352 5253 5351 5450 5451 5352 5450 5549 5550 5451 5549 5648 5649 5550 5648 5747 5748 5649 5747 5846 5847 5748 5846 5945 5946 5847 5945 6044 6045 5946 6044 6143 6144 6045 6143 6242 6243 6144 6242 6341 6342 6243 6341 6440 6441 6342 6440 6539 6540 6441 6539 6638 6639 6540 6638 6737 6738 6639 6737 6836 6837 6738 6836 6935 6936 6837 6935 7034 7035 6936 7034 7133 7134 7035 7133 7232 7233 7134 7232 7331 7332 7233 7331 7430 7431 7332 7430 7529 7530 7431 7529 7628 7629 7530 7628 7727 7728 7629 7727 7826 7827 7728 7826 7925 7926 7827 7925 8024 8025 7926 8024 8123 8124 8025 8123 8222 8223 8124 8222 8321 8322 8223 8321 8420 8421 8322 8420 8519 8520 8421 8519 8618 8619 8520 8618 8717 8718 8619 8717 8816 8817 8718 8816 8915 8916 8817 8915 9014 9015 8916 9014 9113 9114 9015 9113 9212 9213 9114 9212 9311 9312 9213 9311 9410 9411 9312 9410 9509 9510 9411 9509 9608 9609 9510 9608 9707 9708 9609 9707 9806 9807 9708 9806 9905 9906 9807 9905 10004 10005 9906 10004 10103 10104 10005 10103 10202 10203 10104 10202 10301 10302 10203 10301 10400 10401 10302 10400 10499 10500 10401 10499 10598 10599 10500 10598 10697 10698 10599 10697 10796 10797 10698 10796 10895 10896 10797 10895 10994 10995 10896 10994 11093 11094 10995 11093 11192 11193 11094 11192 11291 11292 11193 11291 11390 11391 11292 11390 11489 11490 11391 11489 11588 11589 11490 11588 11687 11688 11589 11687 11786 11787 11688 11786 11885 11886 11787 11885 11984 11985 11886 11984 12083 12084 11985 12083 12182 12183 12084 12182 12281 12282 12183 12281 12380 12381 12282 12380 12479 12480 12381 12479 12578 12579 12480 12578 12677 12678 12579 12677 12776 12777 12678 12776 12875 12876 12777 12875 12974 12975 12876 12974 13073 13074 12975 13073 13172 13173 13074 13172 13271 13272 13173 13271 13370 13371 13272 13370 13469 13470 13371 13469 13568 13569 13470 13568 13667 13668 13569 13667 13766 13767 13668 13766 13865 13866 13767 13865 13964 13965 13866 13964 14063 14064 13965 14063 14162 14163 14064 14162 14261 14262 14163 14261 14360 14361 14262 14360 14459 14460 14361 14459 14558 14559 14460 14558 14657 14658 14559 14657 14756 14757 14658 14756 14855 14856 14757 14855 14954 14955 14856 14954 15053 15054 14955 15053 448 449 15054 472 1887 1888 471 1887 1986 1987 1888 1986 2085 2086 1987 2085 2184 2185 2086 2184 2283 2284 2185 2283 2382 2383 2284 2382 2481 2482 2383 2481 2580 2581 2482 2580 2679 2680 2581 2679 2778 2779 2680 2778 2877 2878 2779 2877 2976 2977 2878 2976 3075 3076 2977 3075 3174 3175 3076 3174 3273 3274 3175 3273 3372 3373 3274 3372 3471 3472 3373 3471 3570 3571 3472 3570 3669 3670 3571 3669 3768 3769 3670 3768 3867 3868 3769 3867 3966 3967 3868 3966 4065 4066 3967 4065 4164 4165 4066 4164 4263 4264 4165 4263 4362 4363 4264 4362 4461 4462 4363 4461 4560 4561 4462 4560 4659 4660 4561 4659 4758 4759 4660 4758 4857 4858 4759 4857 4956 4957 4858 4956 5055 5056 4957 5055 5154 5155 5056 5154 5253 5254 5155 5253 5352 5353 5254 5352 5451 5452 5353 5451 5550 5551 5452 5550 5649 5650 5551 5649 5748 5749 5650 5748 5847 5848 5749 5847 5946 5947 5848 5946 6045 6046 5947 6045 6144 6145 6046 6144 6243 6244 6145 6243 6342 6343 6244 6342 6441 6442 6343 6441 6540 6541 6442 6540 6639 6640 6541 6639 6738 6739 6640 6738 6837 6838 6739 6837 6936 6937 6838 6936 7035 7036 6937 7035 7134 7135 7036 7134 7233 7234 7135 7233 7332 7333 7234 7332 7431 7432 7333 7431 7530 7531 7432 7530 7629 7630 7531 7629 7728 7729 7630 7728 7827 7828 7729 7827 7926 7927 7828 7926 8025 8026 7927 8025 8124 8125 8026 8124 8223 8224 8125 8223 8322 8323 8224 8322 8421 8422 8323 8421 8520 8521 8422 8520 8619 8620 8521 8619 8718 8719 8620 8718 8817 8818 8719 8817 8916 8917 8818 8916 9015 9016 8917 9015 9114 9115 9016 9114 9213 9214 9115 9213 9312 9313 9214 9312 9411 9412 9313 9411 9510 9511 9412 9510 9609 9610 9511 9609 9708 9709 9610 9708 9807 9808 9709 9807 9906 9907 9808 9906 10005 10006 9907 10005 10104 10105 10006 10104 10203 10204 10105 10203 10302 10303 10204 10302 10401 10402 10303 10401 10500 10501 10402 10500 10599 10600 10501 10599 10698 10699 10600 10698 10797 10798 10699 10797 10896 10897 10798 10896 10995 10996 10897 10995 11094 11095 10996 11094 11193 11194 11095 11193 11292 11293 11194 11292 11391 11392 11293 11391 11490 11491 11392 11490 11589 11590 11491 11589 11688 11689 11590 11688 11787 11788 11689 11787 11886 11887 11788 11886 11985 11986 11887 11985 12084 12085 11986 12084 12183 12184 12085 12183 12282 12283 12184 12282 12381 12382 12283 12381 12480 12481 12382 12480 12579 12580 12481 12579 12678 12679 12580 12678 12777 12778 12679 12777 12876 12877 12778 12876 12975 12976 12877 12975 13074 13075 12976 13074 13173 13174 13075 13173 13272 13273 13174 13272 13371 13372 13273 13371 13470 13471 13372 13470 13569 13570 13471 13569 13668 13669 13570 13668 13767 13768 13669 13767 13866 13867 13768 13866 13965 13966 13867 13965 14064 14065 13966 14064 14163 14164 14065 14163 14262 14263 14164 14262 14361 14362 14263 14361 14460 14461 14362 14460 14559 14560 14461 14559 14658 14659 14560 14658 14757 14758 14659 14757 14856 14857 14758 14856 14955 14956 14857 14955 15054 15055 14956 15054 449 450 15055 471 1888 1889 470 1888 1987 1988 1889 1987 2086 2087 1988 2086 2185 2186 2087 2185 2284 2285 2186 2284 2383 2384 2285 2383 2482 2483 2384 2482 2581 2582 2483 2581 2680 2681 2582 2680 2779 2780 2681 2779 2878 2879 2780 2878 2977 2978 2879 2977 3076 3077 2978 3076 3175 3176 3077 3175 3274 3275 3176 3274 3373 3374 3275 3373 3472 3473 3374 3472 3571 3572 3473 3571 3670 3671 3572 3670 3769 3770 3671 3769 3868 3869 3770 3868 3967 3968 3869 3967 4066 4067 3968 4066 4165 4166 4067 4165 4264 4265 4166 4264 4363 4364 4265 4363 4462 4463 4364 4462 4561 4562 4463 4561 4660 4661 4562 4660 4759 4760 4661 4759 4858 4859 4760 4858 4957 4958 4859 4957 5056 5057 4958 5056 5155 5156 5057 5155 5254 5255 5156 5254 5353 5354 5255 5353 5452 5453 5354 5452 5551 5552 5453 5551 5650 5651 5552 5650 5749 5750 5651 5749 5848 5849 5750 5848 5947 5948 5849 5947 6046 6047 5948 6046 6145 6146 6047 6145 6244 6245 6146 6244 6343 6344 6245 6343 6442 6443 6344 6442 6541 6542 6443 6541 6640 6641 6542 6640 6739 6740 6641 6739 6838 6839 6740 6838 6937 6938 6839 6937 7036 7037 6938 7036 7135 7136 7037 7135 7234 7235 7136 7234 7333 7334 7235 7333 7432 7433 7334 7432 7531 7532 7433 7531 7630 7631 7532 7630 7729 7730 7631 7729 7828 7829 7730 7828 7927 7928 7829 7927 8026 8027 7928 8026 8125 8126 8027 8125 8224 8225 8126 8224 8323 8324 8225 8323 8422 8423 8324 8422 8521 8522 8423 8521 8620 8621 8522 8620 8719 8720 8621 8719 8818 8819 8720 8818 8917 8918 8819 8917 9016 9017 8918 9016 9115 9116 9017 9115 9214 9215 9116 9214 9313 9314 9215 9313 9412 9413 9314 9412 9511 9512 9413 9511 9610 9611 9512 9610 9709 9710 9611 9709 9808 9809 9710 9808 9907 9908 9809 9907 10006 10007 9908 10006 10105 10106 10007 10105 10204 10205 10106 10204 10303 10304 10205 10303 10402 10403 10304 10402 10501 10502 10403 10501 10600 10601 10502 10600 10699 10700 10601 10699 10798 10799 10700 10798 10897 10898 10799 10897 10996 10997 10898 10996 11095 11096 10997 11095 11194 11195 11096 11194 11293 11294 11195 11293 11392 11393 11294 11392 11491 11492 11393 11491 11590 11591 11492 11590 11689 11690 11591 11689 11788 11789 11690 11788 11887 11888 11789 11887 11986 11987 11888 11986 12085 12086 11987 12085 12184 12185 12086 12184 12283 12284 12185 12283 12382 12383 12284 12382 12481 12482 12383 12481 12580 12581 12482 12580 12679 12680 12581 12679 12778 12779 12680 12778 12877 12878 12779 12877 12976 12977 12878 12976 13075 13076 12977 13075 13174 13175 13076 13174 13273 13274 13175 13273 13372 13373 13274 13372 13471 13472 13373 13471 13570 13571 13472 13570 13669 13670 13571 13669 13768 13769 13670 13768 13867 13868 13769 13867 13966 13967 13868 13966 14065 14066 13967 14065 14164 14165 14066 14164 14263 14264 14165 14263 14362 14363 14264 14362 14461 14462 14363 14461 14560 14561 14462 14560 14659 14660 14561 14659 14758 14759 14660 14758 14857 14858 14759 14857 14956 14957 14858 14956 15055 15056 14957 15055 450 451 15056 470 1889 1890 469 1889 1988 1989 1890 1988 2087 2088 1989 2087 2186 2187 2088 2186 2285 2286 2187 2285 2384 2385 2286 2384 2483 2484 2385 2483 2582 2583 2484 2582 2681 2682 2583 2681 2780 2781 2682 2780 2879 2880 2781 2879 2978 2979 2880 2978 3077 3078 2979 3077 3176 3177 3078 3176 3275 3276 3177 3275 3374 3375 3276 3374 3473 3474 3375 3473 3572 3573 3474 3572 3671 3672 3573 3671 3770 3771 3672 3770 3869 3870 3771 3869 3968 3969 3870 3968 4067 4068 3969 4067 4166 4167 4068 4166 4265 4266 4167 4265 4364 4365 4266 4364 4463 4464 4365 4463 4562 4563 4464 4562 4661 4662 4563 4661 4760 4761 4662 4760 4859 4860 4761 4859 4958 4959 4860 4958 5057 5058 4959 5057 5156 5157 5058 5156 5255 5256 5157 5255 5354 5355 5256 5354 5453 5454 5355 5453 5552 5553 5454 5552 5651 5652 5553 5651 5750 5751 5652 5750 5849 5850 5751 5849 5948 5949 5850 5948 6047 6048 5949 6047 6146 6147 6048 6146 6245 6246 6147 6245 6344 6345 6246 6344 6443 6444 6345 6443 6542 6543 6444 6542 6641 6642 6543 6641 6740 6741 6642 6740 6839 6840 6741 6839 6938 6939 6840 6938 7037 7038 6939 7037 7136 7137 7038 7136 7235 7236 7137 7235 7334 7335 7236 7334 7433 7434 7335 7433 7532 7533 7434 7532 7631 7632 7533 7631 7730 7731 7632 7730 7829 7830 7731 7829 7928 7929 7830 7928 8027 8028 7929 8027 8126 8127 8028 8126 8225 8226 8127 8225 8324 8325 8226 8324 8423 8424 8325 8423 8522 8523 8424 8522 8621 8622 8523 8621 8720 8721 8622 8720 8819 8820 8721 8819 8918 8919 8820 8918 9017 9018 8919 9017 9116 9117 9018 9116 9215 9216 9117 9215 9314 9315 9216 9314 9413 9414 9315 9413 9512 9513 9414 9512 9611 9612 9513 9611 9710 9711 9612 9710 9809 9810 9711 9809 9908 9909 9810 9908 10007 10008 9909 10007 10106 10107 10008 10106 10205 10206 10107 10205 10304 10305 10206 10304 10403 10404 10305 10403 10502 10503 10404 10502 10601 10602 10503 10601 10700 10701 10602 10700 10799 10800 10701 10799 10898 10899 10800 10898 10997 10998 10899 10997 11096 11097 10998 11096 11195 11196 11097 11195 11294 11295 11196 11294 11393 11394 11295 11393 11492 11493 11394 11492 11591 11592 11493 11591 11690 11691 11592 11690 11789 11790 11691 11789 11888 11889 11790 11888 11987 11988 11889 11987 12086 12087 11988 12086 12185 12186 12087 12185 12284 12285 12186 12284 12383 12384 12285 12383 12482 12483 12384 12482 12581 12582 12483 12581 12680 12681 12582 12680 12779 12780 12681 12779 12878 12879 12780 12878 12977 12978 12879 12977 13076 13077 12978 13076 13175 13176 13077 13175 13274 13275 13176 13274 13373 13374 13275 13373 13472 13473 13374 13472 13571 13572 13473 13571 13670 13671 13572 13670 13769 13770 13671 13769 13868 13869 13770 13868 13967 13968 13869 13967 14066 14067 13968 14066 14165 14166 14067 14165 14264 14265 14166 14264 14363 14364 14265 14363 14462 14463 14364 14462 14561 14562 14463 14561 14660 14661 14562 14660 14759 14760 14661 14759 14858 14859 14760 14858 14957 14958 14859 14957 15056 15057 14958 15056 451 452 15057 469 1890 1891 468 1890 1989 1990 1891 1989 2088 2089 1990 2088 2187 2188 2089 2187 2286 2287 2188 2286 2385 2386 2287 2385 2484 2485 2386 2484 2583 2584 2485 2583 2682 2683 2584 2682 2781 2782 2683 2781 2880 2881 2782 2880 2979 2980 2881 2979 3078 3079 2980 3078 3177 3178 3079 3177 3276 3277 3178 3276 3375 3376 3277 3375 3474 3475 3376 3474 3573 3574 3475 3573 3672 3673 3574 3672 3771 3772 3673 3771 3870 3871 3772 3870 3969 3970 3871 3969 4068 4069 3970 4068 4167 4168 4069 4167 4266 4267 4168 4266 4365 4366 4267 4365 4464 4465 4366 4464 4563 4564 4465 4563 4662 4663 4564 4662 4761 4762 4663 4761 4860 4861 4762 4860 4959 4960 4861 4959 5058 5059 4960 5058 5157 5158 5059 5157 5256 5257 5158 5256 5355 5356 5257 5355 5454 5455 5356 5454 5553 5554 5455 5553 5652 5653 5554 5652 5751 5752 5653 5751 5850 5851 5752 5850 5949 5950 5851 5949 6048 6049 5950 6048 6147 6148 6049 6147 6246 6247 6148 6246 6345 6346 6247 6345 6444 6445 6346 6444 6543 6544 6445 6543 6642 6643 6544 6642 6741 6742 6643 6741 6840 6841 6742 6840 6939 6940 6841 6939 7038 7039 6940 7038 7137 7138 7039 7137 7236 7237 7138 7236 7335 7336 7237 7335 7434 7435 7336 7434 7533 7534 7435 7533 7632 7633 7534 7632 7731 7732 7633 7731 7830 7831 7732 7830 7929 7930 7831 7929 8028 8029 7930 8028 8127 8128 8029 8127 8226 8227 8128 8226 8325 8326 8227 8325 8424 8425 8326 8424 8523 8524 8425 8523 8622 8623 8524 8622 8721 8722 8623 8721 8820 8821 8722 8820 8919 8920 8821 8919 9018 9019 8920 9018 9117 9118 9019 9117 9216 9217 9118 9216 9315 9316 9217 9315 9414 9415 9316 9414 9513 9514 9415 9513 9612 9613 9514 9612 9711 9712 9613 9711 9810 9811 9712 9810 9909 9910 9811 9909 10008 10009 9910 10008 10107 10108 10009 10107 10206 10207 10108 10206 10305 10306 10207 10305 10404 10405 10306 10404 10503 10504 10405 10503 10602 10603 10504 10602 10701 10702 10603 10701 10800 10801 10702 10800 10899 10900 10801 10899 10998 10999 10900 10998 11097 11098 10999 11097 11196 11197 11098 11196 11295 11296 11197 11295 11394 11395 11296 11394 11493 11494 11395 11493 11592 11593 11494 11592 11691 11692 11593 11691 11790 11791 11692 11790 11889 11890 11791 11889 11988 11989 11890 11988 12087 12088 11989 12087 12186 12187 12088 12186 12285 12286 12187 12285 12384 12385 12286 12384 12483 12484 12385 12483 12582 12583 12484 12582 12681 12682 12583 12681 12780 12781 12682 12780 12879 12880 12781 12879 12978 12979 12880 12978 13077 13078 12979 13077 13176 13177 13078 13176 13275 13276 13177 13275 13374 13375 13276 13374 13473 13474 13375 13473 13572 13573 13474 13572 13671 13672 13573 13671 13770 13771 13672 13770 13869 13870 13771 13869 13968 13969 13870 13968 14067 14068 13969 14067 14166 14167 14068 14166 14265 14266 14167 14265 14364 14365 14266 14364 14463 14464 14365 14463 14562 14563 14464 14562 14661 14662 14563 14661 14760 14761 14662 14760 14859 14860 14761 14859 14958 14959 14860 14958 15057 15058 14959 15057 452 453 15058 468 1891 1892 467 1891 1990 1991 1892 1990 2089 2090 1991 2089 2188 2189 2090 2188 2287 2288 2189 2287 2386 2387 2288 2386 2485 2486 2387 2485 2584 2585 2486 2584 2683 2684 2585 2683 2782 2783 2684 2782 2881 2882 2783 2881 2980 2981 2882 2980 3079 3080 2981 3079 3178 3179 3080 3178 3277 3278 3179 3277 3376 3377 3278 3376 3475 3476 3377 3475 3574 3575 3476 3574 3673 3674 3575 3673 3772 3773 3674 3772 3871 3872 3773 3871 3970 3971 3872 3970 4069 4070 3971 4069 4168 4169 4070 4168 4267 4268 4169 4267 4366 4367 4268 4366 4465 4466 4367 4465 4564 4565 4466 4564 4663 4664 4565 4663 4762 4763 4664 4762 4861 4862 4763 4861 4960 4961 4862 4960 5059 5060 4961 5059 5158 5159 5060 5158 5257 5258 5159 5257 5356 5357 5258 5356 5455 5456 5357 5455 5554 5555 5456 5554 5653 5654 5555 5653 5752 5753 5654 5752 5851 5852 5753 5851 5950 5951 5852 5950 6049 6050 5951 6049 6148 6149 6050 6148 6247 6248 6149 6247 6346 6347 6248 6346 6445 6446 6347 6445 6544 6545 6446 6544 6643 6644 6545 6643 6742 6743 6644 6742 6841 6842 6743 6841 6940 6941 6842 6940 7039 7040 6941 7039 7138 7139 7040 7138 7237 7238 7139 7237 7336 7337 7238 7336 7435 7436 7337 7435 7534 7535 7436 7534 7633 7634 7535 7633 7732 7733 7634 7732 7831 7832 7733 7831 7930 7931 7832 7930 8029 8030 7931 8029 8128 8129 8030 8128 8227 8228 8129 8227 8326 8327 8228 8326 8425 8426 8327 8425 8524 8525 8426 8524 8623 8624 8525 8623 8722 8723 8624 8722 8821 8822 8723 8821 8920 8921 8822 8920 9019 9020 8921 9019 9118 9119 9020 9118 9217 9218 9119 9217 9316 9317 9218 9316 9415 9416 9317 9415 9514 9515 9416 9514 9613 9614 9515 9613 9712 9713 9614 9712 9811 9812 9713 9811 9910 9911 9812 9910 10009 10010 9911 10009 10108 10109 10010 10108 10207 10208 10109 10207 10306 10307 10208 10306 10405 10406 10307 10405 10504 10505 10406 10504 10603 10604 10505 10603 10702 10703 10604 10702 10801 10802 10703 10801 10900 10901 10802 10900 10999 11000 10901 10999 11098 11099 11000 11098 11197 11198 11099 11197 11296 11297 11198 11296 11395 11396 11297 11395 11494 11495 11396 11494 11593 11594 11495 11593 11692 11693 11594 11692 11791 11792 11693 11791 11890 11891 11792 11890 11989 11990 11891 11989 12088 12089 11990 12088 12187 12188 12089 12187 12286 12287 12188 12286 12385 12386 12287 12385 12484 12485 12386 12484 12583 12584 12485 12583 12682 12683 12584 12682 12781 12782 12683 12781 12880 12881 12782 12880 12979 12980 12881 12979 13078 13079 12980 13078 13177 13178 13079 13177 13276 13277 13178 13276 13375 13376 13277 13375 13474 13475 13376 13474 13573 13574 13475 13573 13672 13673 13574 13672 13771 13772 13673 13771 13870 13871 13772 13870 13969 13970 13871 13969 14068 14069 13970 14068 14167 14168 14069 14167 14266 14267 14168 14266 14365 14366 14267 14365 14464 14465 14366 14464 14563 14564 14465 14563 14662 14663 14564 14662 14761 14762 14663 14761 14860 14861 14762 14860 14959 14960 14861 14959 15058 15059 14960 15058 453 454 15059 467 1892 1893 466 1892 1991 1992 1893 1991 2090 2091 1992 2090 2189 2190 2091 2189 2288 2289 2190 2288 2387 2388 2289 2387 2486 2487 2388 2486 2585 2586 2487 2585 2684 2685 2586 2684 2783 2784 2685 2783 2882 2883 2784 2882 2981 2982 2883 2981 3080 3081 2982 3080 3179 3180 3081 3179 3278 3279 3180 3278 3377 3378 3279 3377 3476 3477 3378 3476 3575 3576 3477 3575 3674 3675 3576 3674 3773 3774 3675 3773 3872 3873 3774 3872 3971 3972 3873 3971 4070 4071 3972 4070 4169 4170 4071 4169 4268 4269 4170 4268 4367 4368 4269 4367 4466 4467 4368 4466 4565 4566 4467 4565 4664 4665 4566 4664 4763 4764 4665 4763 4862 4863 4764 4862 4961 4962 4863 4961 5060 5061 4962 5060 5159 5160 5061 5159 5258 5259 5160 5258 5357 5358 5259 5357 5456 5457 5358 5456 5555 5556 5457 5555 5654 5655 5556 5654 5753 5754 5655 5753 5852 5853 5754 5852 5951 5952 5853 5951 6050 6051 5952 6050 6149 6150 6051 6149 6248 6249 6150 6248 6347 6348 6249 6347 6446 6447 6348 6446 6545 6546 6447 6545 6644 6645 6546 6644 6743 6744 6645 6743 6842 6843 6744 6842 6941 6942 6843 6941 7040 7041 6942 7040 7139 7140 7041 7139 7238 7239 7140 7238 7337 7338 7239 7337 7436 7437 7338 7436 7535 7536 7437 7535 7634 7635 7536 7634 7733 7734 7635 7733 7832 7833 7734 7832 7931 7932 7833 7931 8030 8031 7932 8030 8129 8130 8031 8129 8228 8229 8130 8228 8327 8328 8229 8327 8426 8427 8328 8426 8525 8526 8427 8525 8624 8625 8526 8624 8723 8724 8625 8723 8822 8823 8724 8822 8921 8922 8823 8921 9020 9021 8922 9020 9119 9120 9021 9119 9218 9219 9120 9218 9317 9318 9219 9317 9416 9417 9318 9416 9515 9516 9417 9515 9614 9615 9516 9614 9713 9714 9615 9713 9812 9813 9714 9812 9911 9912 9813 9911 10010 10011 9912 10010 10109 10110 10011 10109 10208 10209 10110 10208 10307 10308 10209 10307 10406 10407 10308 10406 10505 10506 10407 10505 10604 10605 10506 10604 10703 10704 10605 10703 10802 10803 10704 10802 10901 10902 10803 10901 11000 11001 10902 11000 11099 11100 11001 11099 11198 11199 11100 11198 11297 11298 11199 11297 11396 11397 11298 11396 11495 11496 11397 11495 11594 11595 11496 11594 11693 11694 11595 11693 11792 11793 11694 11792 11891 11892 11793 11891 11990 11991 11892 11990 12089 12090 11991 12089 12188 12189 12090 12188 12287 12288 12189 12287 12386 12387 12288 12386 12485 12486 12387 12485 12584 12585 12486 12584 12683 12684 12585 12683 12782 12783 12684 12782 12881 12882 12783 12881 12980 12981 12882 12980 13079 13080 12981 13079 13178 13179 13080 13178 13277 13278 13179 13277 13376 13377 13278 13376 13475 13476 13377 13475 13574 13575 13476 13574 13673 13674 13575 13673 13772 13773 13674 13772 13871 13872 13773 13871 13970 13971 13872 13970 14069 14070 13971 14069 14168 14169 14070 14168 14267 14268 14169 14267 14366 14367 14268 14366 14465 14466 14367 14465 14564 14565 14466 14564 14663 14664 14565 14663 14762 14763 14664 14762 14861 14862 14763 14861 14960 14961 14862 14960 15059 15060 14961 15059 454 455 15060 466 1893 1894 465 1893 1992 1993 1894 1992 2091 2092 1993 2091 2190 2191 2092 2190 2289 2290 2191 2289 2388 2389 2290 2388 2487 2488 2389 2487 2586 2587 2488 2586 2685 2686 2587 2685 2784 2785 2686 2784 2883 2884 2785 2883 2982 2983 2884 2982 3081 3082 2983 3081 3180 3181 3082 3180 3279 3280 3181 3279 3378 3379 3280 3378 3477 3478 3379 3477 3576 3577 3478 3576 3675 3676 3577 3675 3774 3775 3676 3774 3873 3874 3775 3873 3972 3973 3874 3972 4071 4072 3973 4071 4170 4171 4072 4170 4269 4270 4171 4269 4368 4369 4270 4368 4467 4468 4369 4467 4566 4567 4468 4566 4665 4666 4567 4665 4764 4765 4666 4764 4863 4864 4765 4863 4962 4963 4864 4962 5061 5062 4963 5061 5160 5161 5062 5160 5259 5260 5161 5259 5358 5359 5260 5358 5457 5458 5359 5457 5556 5557 5458 5556 5655 5656 5557 5655 5754 5755 5656 5754 5853 5854 5755 5853 5952 5953 5854 5952 6051 6052 5953 6051 6150 6151 6052 6150 6249 6250 6151 6249 6348 6349 6250 6348 6447 6448 6349 6447 6546 6547 6448 6546 6645 6646 6547 6645 6744 6745 6646 6744 6843 6844 6745 6843 6942 6943 6844 6942 7041 7042 6943 7041 7140 7141 7042 7140 7239 7240 7141 7239 7338 7339 7240 7338 7437 7438 7339 7437 7536 7537 7438 7536 7635 7636 7537 7635 7734 7735 7636 7734 7833 7834 7735 7833 7932 7933 7834 7932 8031 8032 7933 8031 8130 8131 8032 8130 8229 8230 8131 8229 8328 8329 8230 8328 8427 8428 8329 8427 8526 8527 8428 8526 8625 8626 8527 8625 8724 8725 8626 8724 8823 8824 8725 8823 8922 8923 8824 8922 9021 9022 8923 9021 9120 9121 9022 9120 9219 9220 9121 9219 9318 9319 9220 9318 9417 9418 9319 9417 9516 9517 9418 9516 9615 9616 9517 9615 9714 9715 9616 9714 9813 9814 9715 9813 9912 9913 9814 9912 10011 10012 9913 10011 10110 10111 10012 10110 10209 10210 10111 10209 10308 10309 10210 10308 10407 10408 10309 10407 10506 10507 10408 10506 10605 10606 10507 10605 10704 10705 10606 10704 10803 10804 10705 10803 10902 10903 10804 10902 11001 11002 10903 11001 11100 11101 11002 11100 11199 11200 11101 11199 11298 11299 11200 11298 11397 11398 11299 11397 11496 11497 11398 11496 11595 11596 11497 11595 11694 11695 11596 11694 11793 11794 11695 11793 11892 11893 11794 11892 11991 11992 11893 11991 12090 12091 11992 12090 12189 12190 12091 12189 12288 12289 12190 12288 12387 12388 12289 12387 12486 12487 12388 12486 12585 12586 12487 12585 12684 12685 12586 12684 12783 12784 12685 12783 12882 12883 12784 12882 12981 12982 12883 12981 13080 13081 12982 13080 13179 13180 13081 13179 13278 13279 13180 13278 13377 13378 13279 13377 13476 13477 13378 13476 13575 13576 13477 13575 13674 13675 13576 13674 13773 13774 13675 13773 13872 13873 13774 13872 13971 13972 13873 13971 14070 14071 13972 14070 14169 14170 14071 14169 14268 14269 14170 14268 14367 14368 14269 14367 14466 14467 14368 14466 14565 14566 14467 14565 14664 14665 14566 14664 14763 14764 14665 14763 14862 14863 14764 14862 14961 14962 14863 14961 15060 15061 14962 15060 455 456 15061 465 1894 1895 464 1894 1993 1994 1895 1993 2092 2093 1994 2092 2191 2192 2093 2191 2290 2291 2192 2290 2389 2390 2291 2389 2488 2489 2390 2488 2587 2588 2489 2587 2686 2687 2588 2686 2785 2786 2687 2785 2884 2885 2786 2884 2983 2984 2885 2983 3082 3083 2984 3082 3181 3182 3083 3181 3280 3281 3182 3280 3379 3380 3281 3379 3478 3479 3380 3478 3577 3578 3479 3577 3676 3677 3578 3676 3775 3776 3677 3775 3874 3875 3776 3874 3973 3974 3875 3973 4072 4073 3974 4072 4171 4172 4073 4171 4270 4271 4172 4270 4369 4370 4271 4369 4468 4469 4370 4468 4567 4568 4469 4567 4666 4667 4568 4666 4765 4766 4667 4765 4864 4865 4766 4864 4963 4964 4865 4963 5062 5063 4964 5062 5161 5162 5063 5161 5260 5261 5162 5260 5359 5360 5261 5359 5458 5459 5360 5458 5557 5558 5459 5557 5656 5657 5558 5656 5755 5756 5657 5755 5854 5855 5756 5854 5953 5954 5855 5953 6052 6053 5954 6052 6151 6152 6053 6151 6250 6251 6152 6250 6349 6350 6251 6349 6448 6449 6350 6448 6547 6548 6449 6547 6646 6647 6548 6646 6745 6746 6647 6745 6844 6845 6746 6844 6943 6944 6845 6943 7042 7043 6944 7042 7141 7142 7043 7141 7240 7241 7142 7240 7339 7340 7241 7339 7438 7439 7340 7438 7537 7538 7439 7537 7636 7637 7538 7636 7735 7736 7637 7735 7834 7835 7736 7834 7933 7934 7835 7933 8032 8033 7934 8032 8131 8132 8033 8131 8230 8231 8132 8230 8329 8330 8231 8329 8428 8429 8330 8428 8527 8528 8429 8527 8626 8627 8528 8626 8725 8726 8627 8725 8824 8825 8726 8824 8923 8924 8825 8923 9022 9023 8924 9022 9121 9122 9023 9121 9220 9221 9122 9220 9319 9320 9221 9319 9418 9419 9320 9418 9517 9518 9419 9517 9616 9617 9518 9616 9715 9716 9617 9715 9814 9815 9716 9814 9913 9914 9815 9913 10012 10013 9914 10012 10111 10112 10013 10111 10210 10211 10112 10210 10309 10310 10211 10309 10408 10409 10310 10408 10507 10508 10409 10507 10606 10607 10508 10606 10705 10706 10607 10705 10804 10805 10706 10804 10903 10904 10805 10903 11002 11003 10904 11002 11101 11102 11003 11101 11200 11201 11102 11200 11299 11300 11201 11299 11398 11399 11300 11398 11497 11498 11399 11497 11596 11597 11498 11596 11695 11696 11597 11695 11794 11795 11696 11794 11893 11894 11795 11893 11992 11993 11894 11992 12091 12092 11993 12091 12190 12191 12092 12190 12289 12290 12191 12289 12388 12389 12290 12388 12487 12488 12389 12487 12586 12587 12488 12586 12685 12686 12587 12685 12784 12785 12686 12784 12883 12884 12785 12883 12982 12983 12884 12982 13081 13082 12983 13081 13180 13181 13082 13180 13279 13280 13181 13279 13378 13379 13280 13378 13477 13478 13379 13477 13576 13577 13478 13576 13675 13676 13577 13675 13774 13775 13676 13774 13873 13874 13775 13873 13972 13973 13874 13972 14071 14072 13973 14071 14170 14171 14072 14170 14269 14270 14171 14269 14368 14369 14270 14368 14467 14468 14369 14467 14566 14567 14468 14566 14665 14666 14567 14665 14764 14765 14666 14764 14863 14864 14765 14863 14962 14963 14864 14962 15061 15062 14963 15061 456 457 15062 464 1895 1896 463 1895 1994 1995 1896 1994 2093 2094 1995 2093 2192 2193 2094 2192 2291 2292 2193 2291 2390 2391 2292 2390 2489 2490 2391 2489 2588 2589 2490 2588 2687 2688 2589 2687 2786 2787 2688 2786 2885 2886 2787 2885 2984 2985 2886 2984 3083 3084 2985 3083 3182 3183 3084 3182 3281 3282 3183 3281 3380 3381 3282 3380 3479 3480 3381 3479 3578 3579 3480 3578 3677 3678 3579 3677 3776 3777 3678 3776 3875 3876 3777 3875 3974 3975 3876 3974 4073 4074 3975 4073 4172 4173 4074 4172 4271 4272 4173 4271 4370 4371 4272 4370 4469 4470 4371 4469 4568 4569 4470 4568 4667 4668 4569 4667 4766 4767 4668 4766 4865 4866 4767 4865 4964 4965 4866 4964 5063 5064 4965 5063 5162 5163 5064 5162 5261 5262 5163 5261 5360 5361 5262 5360 5459 5460 5361 5459 5558 5559 5460 5558 5657 5658 5559 5657 5756 5757 5658 5756 5855 5856 5757 5855 5954 5955 5856 5954 6053 6054 5955 6053 6152 6153 6054 6152 6251 6252 6153 6251 6350 6351 6252 6350 6449 6450 6351 6449 6548 6549 6450 6548 6647 6648 6549 6647 6746 6747 6648 6746 6845 6846 6747 6845 6944 6945 6846 6944 7043 7044 6945 7043 7142 7143 7044 7142 7241 7242 7143 7241 7340 7341 7242 7340 7439 7440 7341 7439 7538 7539 7440 7538 7637 7638 7539 7637 7736 7737 7638 7736 7835 7836 7737 7835 7934 7935 7836 7934 8033 8034 7935 8033 8132 8133 8034 8132 8231 8232 8133 8231 8330 8331 8232 8330 8429 8430 8331 8429 8528 8529 8430 8528 8627 8628 8529 8627 8726 8727 8628 8726 8825 8826 8727 8825 8924 8925 8826 8924 9023 9024 8925 9023 9122 9123 9024 9122 9221 9222 9123 9221 9320 9321 9222 9320 9419 9420 9321 9419 9518 9519 9420 9518 9617 9618 9519 9617 9716 9717 9618 9716 9815 9816 9717 9815 9914 9915 9816 9914 10013 10014 9915 10013 10112 10113 10014 10112 10211 10212 10113 10211 10310 10311 10212 10310 10409 10410 10311 10409 10508 10509 10410 10508 10607 10608 10509 10607 10706 10707 10608 10706 10805 10806 10707 10805 10904 10905 10806 10904 11003 11004 10905 11003 11102 11103 11004 11102 11201 11202 11103 11201 11300 11301 11202 11300 11399 11400 11301 11399 11498 11499 11400 11498 11597 11598 11499 11597 11696 11697 11598 11696 11795 11796 11697 11795 11894 11895 11796 11894 11993 11994 11895 11993 12092 12093 11994 12092 12191 12192 12093 12191 12290 12291 12192 12290 12389 12390 12291 12389 12488 12489 12390 12488 12587 12588 12489 12587 12686 12687 12588 12686 12785 12786 12687 12785 12884 12885 12786 12884 12983 12984 12885 12983 13082 13083 12984 13082 13181 13182 13083 13181 13280 13281 13182 13280 13379 13380 13281 13379 13478 13479 13380 13478 13577 13578 13479 13577 13676 13677 13578 13676 13775 13776 13677 13775 13874 13875 13776 13874 13973 13974 13875 13973 14072 14073 13974 14072 14171 14172 14073 14171 14270 14271 14172 14270 14369 14370 14271 14369 14468 14469 14370 14468 14567 14568 14469 14567 14666 14667 14568 14666 14765 14766 14667 14765 14864 14865 14766 14864 14963 14964 14865 14963 15062 15063 14964 15062 457 458 15063 463 1896 1897 462 1896 1995 1996 1897 1995 2094 2095 1996 2094 2193 2194 2095 2193 2292 2293 2194 2292 2391 2392 2293 2391 2490 2491 2392 2490 2589 2590 2491 2589 2688 2689 2590 2688 2787 2788 2689 2787 2886 2887 2788 2886 2985 2986 2887 2985 3084 3085 2986 3084 3183 3184 3085 3183 3282 3283 3184 3282 3381 3382 3283 3381 3480 3481 3382 3480 3579 3580 3481 3579 3678 3679 3580 3678 3777 3778 3679 3777 3876 3877 3778 3876 3975 3976 3877 3975 4074 4075 3976 4074 4173 4174 4075 4173 4272 4273 4174 4272 4371 4372 4273 4371 4470 4471 4372 4470 4569 4570 4471 4569 4668 4669 4570 4668 4767 4768 4669 4767 4866 4867 4768 4866 4965 4966 4867 4965 5064 5065 4966 5064 5163 5164 5065 5163 5262 5263 5164 5262 5361 5362 5263 5361 5460 5461 5362 5460 5559 5560 5461 5559 5658 5659 5560 5658 5757 5758 5659 5757 5856 5857 5758 5856 5955 5956 5857 5955 6054 6055 5956 6054 6153 6154 6055 6153 6252 6253 6154 6252 6351 6352 6253 6351 6450 6451 6352 6450 6549 6550 6451 6549 6648 6649 6550 6648 6747 6748 6649 6747 6846 6847 6748 6846 6945 6946 6847 6945 7044 7045 6946 7044 7143 7144 7045 7143 7242 7243 7144 7242 7341 7342 7243 7341 7440 7441 7342 7440 7539 7540 7441 7539 7638 7639 7540 7638 7737 7738 7639 7737 7836 7837 7738 7836 7935 7936 7837 7935 8034 8035 7936 8034 8133 8134 8035 8133 8232 8233 8134 8232 8331 8332 8233 8331 8430 8431 8332 8430 8529 8530 8431 8529 8628 8629 8530 8628 8727 8728 8629 8727 8826 8827 8728 8826 8925 8926 8827 8925 9024 9025 8926 9024 9123 9124 9025 9123 9222 9223 9124 9222 9321 9322 9223 9321 9420 9421 9322 9420 9519 9520 9421 9519 9618 9619 9520 9618 9717 9718 9619 9717 9816 9817 9718 9816 9915 9916 9817 9915 10014 10015 9916 10014 10113 10114 10015 10113 10212 10213 10114 10212 10311 10312 10213 10311 10410 10411 10312 10410 10509 10510 10411 10509 10608 10609 10510 10608 10707 10708 10609 10707 10806 10807 10708 10806 10905 10906 10807 10905 11004 11005 10906 11004 11103 11104 11005 11103 11202 11203 11104 11202 11301 11302 11203 11301 11400 11401 11302 11400 11499 11500 11401 11499 11598 11599 11500 11598 11697 11698 11599 11697 11796 11797 11698 11796 11895 11896 11797 11895 11994 11995 11896 11994 12093 12094 11995 12093 12192 12193 12094 12192 12291 12292 12193 12291 12390 12391 12292 12390 12489 12490 12391 12489 12588 12589 12490 12588 12687 12688 12589 12687 12786 12787 12688 12786 12885 12886 12787 12885 12984 12985 12886 12984 13083 13084 12985 13083 13182 13183 13084 13182 13281 13282 13183 13281 13380 13381 13282 13380 13479 13480 13381 13479 13578 13579 13480 13578 13677 13678 13579 13677 13776 13777 13678 13776 13875 13876 13777 13875 13974 13975 13876 13974 14073 14074 13975 14073 14172 14173 14074 14172 14271 14272 14173 14271 14370 14371 14272 14370 14469 14470 14371 14469 14568 14569 14470 14568 14667 14668 14569 14667 14766 14767 14668 14766 14865 14866 14767 14865 14964 14965 14866 14964 15063 15064 14965 15063 458 459 15064 462 1897 1898 461 1897 1996 1997 1898 1996 2095 2096 1997 2095 2194 2195 2096 2194 2293 2294 2195 2293 2392 2393 2294 2392 2491 2492 2393 2491 2590 2591 2492 2590 2689 2690 2591 2689 2788 2789 2690 2788 2887 2888 2789 2887 2986 2987 2888 2986 3085 3086 2987 3085 3184 3185 3086 3184 3283 3284 3185 3283 3382 3383 3284 3382 3481 3482 3383 3481 3580 3581 3482 3580 3679 3680 3581 3679 3778 3779 3680 3778 3877 3878 3779 3877 3976 3977 3878 3976 4075 4076 3977 4075 4174 4175 4076 4174 4273 4274 4175 4273 4372 4373 4274 4372 4471 4472 4373 4471 4570 4571 4472 4570 4669 4670 4571 4669 4768 4769 4670 4768 4867 4868 4769 4867 4966 4967 4868 4966 5065 5066 4967 5065 5164 5165 5066 5164 5263 5264 5165 5263 5362 5363 5264 5362 5461 5462 5363 5461 5560 5561 5462 5560 5659 5660 5561 5659 5758 5759 5660 5758 5857 5858 5759 5857 5956 5957 5858 5956 6055 6056 5957 6055 6154 6155 6056 6154 6253 6254 6155 6253 6352 6353 6254 6352 6451 6452 6353 6451 6550 6551 6452 6550 6649 6650 6551 6649 6748 6749 6650 6748 6847 6848 6749 6847 6946 6947 6848 6946 7045 7046 6947 7045 7144 7145 7046 7144 7243 7244 7145 7243 7342 7343 7244 7342 7441 7442 7343 7441 7540 7541 7442 7540 7639 7640 7541 7639 7738 7739 7640 7738 7837 7838 7739 7837 7936 7937 7838 7936 8035 8036 7937 8035 8134 8135 8036 8134 8233 8234 8135 8233 8332 8333 8234 8332 8431 8432 8333 8431 8530 8531 8432 8530 8629 8630 8531 8629 8728 8729 8630 8728 8827 8828 8729 8827 8926 8927 8828 8926 9025 9026 8927 9025 9124 9125 9026 9124 9223 9224 9125 9223 9322 9323 9224 9322 9421 9422 9323 9421 9520 9521 9422 9520 9619 9620 9521 9619 9718 9719 9620 9718 9817 9818 9719 9817 9916 9917 9818 9916 10015 10016 9917 10015 10114 10115 10016 10114 10213 10214 10115 10213 10312 10313 10214 10312 10411 10412 10313 10411 10510 10511 10412 10510 10609 10610 10511 10609 10708 10709 10610 10708 10807 10808 10709 10807 10906 10907 10808 10906 11005 11006 10907 11005 11104 11105 11006 11104 11203 11204 11105 11203 11302 11303 11204 11302 11401 11402 11303 11401 11500 11501 11402 11500 11599 11600 11501 11599 11698 11699 11600 11698 11797 11798 11699 11797 11896 11897 11798 11896 11995 11996 11897 11995 12094 12095 11996 12094 12193 12194 12095 12193 12292 12293 12194 12292 12391 12392 12293 12391 12490 12491 12392 12490 12589 12590 12491 12589 12688 12689 12590 12688 12787 12788 12689 12787 12886 12887 12788 12886 12985 12986 12887 12985 13084 13085 12986 13084 13183 13184 13085 13183 13282 13283 13184 13282 13381 13382 13283 13381 13480 13481 13382 13480 13579 13580 13481 13579 13678 13679 13580 13678 13777 13778 13679 13777 13876 13877 13778 13876 13975 13976 13877 13975 14074 14075 13976 14074 14173 14174 14075 14173 14272 14273 14174 14272 14371 14372 14273 14371 14470 14471 14372 14470 14569 14570 14471 14569 14668 14669 14570 14668 14767 14768 14669 14767 14866 14867 14768 14866 14965 14966 14867 14965 15064 15065 14966 15064 459 460 15065 461 1898 1899 0 1898 1997 1998 1899 1997 2096 2097 1998 2096 2195 2196 2097 2195 2294 2295 2196 2294 2393 2394 2295 2393 2492 2493 2394 2492 2591 2592 2493 2591 2690 2691 2592 2690 2789 2790 2691 2789 2888 2889 2790 2888 2987 2988 2889 2987 3086 3087 2988 3086 3185 3186 3087 3185 3284 3285 3186 3284 3383 3384 3285 3383 3482 3483 3384 3482 3581 3582 3483 3581 3680 3681 3582 3680 3779 3780 3681 3779 3878 3879 3780 3878 3977 3978 3879 3977 4076 4077 3978 4076 4175 4176 4077 4175 4274 4275 4176 4274 4373 4374 4275 4373 4472 4473 4374 4472 4571 4572 4473 4571 4670 4671 4572 4670 4769 4770 4671 4769 4868 4869 4770 4868 4967 4968 4869 4967 5066 5067 4968 5066 5165 5166 5067 5165 5264 5265 5166 5264 5363 5364 5265 5363 5462 5463 5364 5462 5561 5562 5463 5561 5660 5661 5562 5660 5759 5760 5661 5759 5858 5859 5760 5858 5957 5958 5859 5957 6056 6057 5958 6056 6155 6156 6057 6155 6254 6255 6156 6254 6353 6354 6255 6353 6452 6453 6354 6452 6551 6552 6453 6551 6650 6651 6552 6650 6749 6750 6651 6749 6848 6849 6750 6848 6947 6948 6849 6947 7046 7047 6948 7046 7145 7146 7047 7145 7244 7245 7146 7244 7343 7344 7245 7343 7442 7443 7344 7442 7541 7542 7443 7541 7640 7641 7542 7640 7739 7740 7641 7739 7838 7839 7740 7838 7937 7938 7839 7937 8036 8037 7938 8036 8135 8136 8037 8135 8234 8235 8136 8234 8333 8334 8235 8333 8432 8433 8334 8432 8531 8532 8433 8531 8630 8631 8532 8630 8729 8730 8631 8729 8828 8829 8730 8828 8927 8928 8829 8927 9026 9027 8928 9026 9125 9126 9027 9125 9224 9225 9126 9224 9323 9324 9225 9323 9422 9423 9324 9422 9521 9522 9423 9521 9620 9621 9522 9620 9719 9720 9621 9719 9818 9819 9720 9818 9917 9918 9819 9917 10016 10017 9918 10016 10115 10116 10017 10115 10214 10215 10116 10214 10313 10314 10215 10313 10412 10413 10314 10412 10511 10512 10413 10511 10610 10611 10512 10610 10709 10710 10611 10709 10808 10809 10710 10808 10907 10908 10809 10907 11006 11007 10908 11006 11105 11106 11007 11105 11204 11205 11106 11204 11303 11304 11205 11303 11402 11403 11304 11402 11501 11502 11403 11501 11600 11601 11502 11600 11699 11700 11601 11699 11798 11799 11700 11798 11897 11898 11799 11897 11996 11997 11898 11996 12095 12096 11997 12095 12194 12195 12096 12194 12293 12294 12195 12293 12392 12393 12294 12392 12491 12492 12393 12491 12590 12591 12492 12590 12689 12690 12591 12689 12788 12789 12690 12788 12887 12888 12789 12887 12986 12987 12888 12986 13085 13086 12987 13085 13184 13185 13086 13184 13283 13284 13185 13283 13382 13383 13284 13382 13481 13482 13383 13481 13580 13581 13482 13580 13679 13680 13581 13679 13778 13779 13680 13778 13877 13878 13779 13877 13976 13977 13878 13976 14075 14076 13977 14075 14174 14175 14076 14174 14273 14274 14175 14273 14372 14373 14274 14372 14471 14472 14373 14471 14570 14571 14472 14570 14669 14670 14571 14669 14768 14769 14670 14768 14867 14868 14769 14867 14966 14967 14868 14966 15065 15066 14967 15065 460 4 15066 0 1899 1900 631 1899 1998 1999 1900 1998 2097 2098 1999 2097 2196 2197 2098 2196 2295 2296 2197 2295 2394 2395 2296 2394 2493 2494 2395 2493 2592 2593 2494 2592 2691 2692 2593 2691 2790 2791 2692 2790 2889 2890 2791 2889 2988 2989 2890 2988 3087 3088 2989 3087 3186 3187 3088 3186 3285 3286 3187 3285 3384 3385 3286 3384 3483 3484 3385 3483 3582 3583 3484 3582 3681 3682 3583 3681 3780 3781 3682 3780 3879 3880 3781 3879 3978 3979 3880 3978 4077 4078 3979 4077 4176 4177 4078 4176 4275 4276 4177 4275 4374 4375 4276 4374 4473 4474 4375 4473 4572 4573 4474 4572 4671 4672 4573 4671 4770 4771 4672 4770 4869 4870 4771 4869 4968 4969 4870 4968 5067 5068 4969 5067 5166 5167 5068 5166 5265 5266 5167 5265 5364 5365 5266 5364 5463 5464 5365 5463 5562 5563 5464 5562 5661 5662 5563 5661 5760 5761 5662 5760 5859 5860 5761 5859 5958 5959 5860 5958 6057 6058 5959 6057 6156 6157 6058 6156 6255 6256 6157 6255 6354 6355 6256 6354 6453 6454 6355 6453 6552 6553 6454 6552 6651 6652 6553 6651 6750 6751 6652 6750 6849 6850 6751 6849 6948 6949 6850 6948 7047 7048 6949 7047 7146 7147 7048 7146 7245 7246 7147 7245 7344 7345 7246 7344 7443 7444 7345 7443 7542 7543 7444 7542 7641 7642 7543 7641 7740 7741 7642 7740 7839 7840 7741 7839 7938 7939 7840 7938 8037 8038 7939 8037 8136 8137 8038 8136 8235 8236 8137 8235 8334 8335 8236 8334 8433 8434 8335 8433 8532 8533 8434 8532 8631 8632 8533 8631 8730 8731 8632 8730 8829 8830 8731 8829 8928 8929 8830 8928 9027 9028 8929 9027 9126 9127 9028 9126 9225 9226 9127 9225 9324 9325 9226 9324 9423 9424 9325 9423 9522 9523 9424 9522 9621 9622 9523 9621 9720 9721 9622 9720 9819 9820 9721 9819 9918 9919 9820 9918 10017 10018 9919 10017 10116 10117 10018 10116 10215 10216 10117 10215 10314 10315 10216 10314 10413 10414 10315 10413 10512 10513 10414 10512 10611 10612 10513 10611 10710 10711 10612 10710 10809 10810 10711 10809 10908 10909 10810 10908 11007 11008 10909 11007 11106 11107 11008 11106 11205 11206 11107 11205 11304 11305 11206 11304 11403 11404 11305 11403 11502 11503 11404 11502 11601 11602 11503 11601 11700 11701 11602 11700 11799 11800 11701 11799 11898 11899 11800 11898 11997 11998 11899 11997 12096 12097 11998 12096 12195 12196 12097 12195 12294 12295 12196 12294 12393 12394 12295 12393 12492 12493 12394 12492 12591 12592 12493 12591 12690 12691 12592 12690 12789 12790 12691 12789 12888 12889 12790 12888 12987 12988 12889 12987 13086 13087 12988 13086 13185 13186 13087 13185 13284 13285 13186 13284 13383 13384 13285 13383 13482 13483 13384 13482 13581 13582 13483 13581 13680 13681 13582 13680 13779 13780 13681 13779 13878 13879 13780 13878 13977 13978 13879 13977 14076 14077 13978 14076 14175 14176 14077 14175 14274 14275 14176 14274 14373 14374 14275 14373 14472 14473 14374 14472 14571 14572 14473 14571 14670 14671 14572 14670 14769 14770 14671 14769 14868 14869 14770 14868 14967 14968 14869 14967 15066 15067 14968 15066 4 639 15067 631 1900 1901 632 1900 1999 2000 1901 1999 2098 2099 2000 2098 2197 2198 2099 2197 2296 2297 2198 2296 2395 2396 2297 2395 2494 2495 2396 2494 2593 2594 2495 2593 2692 2693 2594 2692 2791 2792 2693 2791 2890 2891 2792 2890 2989 2990 2891 2989 3088 3089 2990 3088 3187 3188 3089 3187 3286 3287 3188 3286 3385 3386 3287 3385 3484 3485 3386 3484 3583 3584 3485 3583 3682 3683 3584 3682 3781 3782 3683 3781 3880 3881 3782 3880 3979 3980 3881 3979 4078 4079 3980 4078 4177 4178 4079 4177 4276 4277 4178 4276 4375 4376 4277 4375 4474 4475 4376 4474 4573 4574 4475 4573 4672 4673 4574 4672 4771 4772 4673 4771 4870 4871 4772 4870 4969 4970 4871 4969 5068 5069 4970 5068 5167 5168 5069 5167 5266 5267 5168 5266 5365 5366 5267 5365 5464 5465 5366 5464 5563 5564 5465 5563 5662 5663 5564 5662 5761 5762 5663 5761 5860 5861 5762 5860 5959 5960 5861 5959 6058 6059 5960 6058 6157 6158 6059 6157 6256 6257 6158 6256 6355 6356 6257 6355 6454 6455 6356 6454 6553 6554 6455 6553 6652 6653 6554 6652 6751 6752 6653 6751 6850 6851 6752 6850 6949 6950 6851 6949 7048 7049 6950 7048 7147 7148 7049 7147 7246 7247 7148 7246 7345 7346 7247 7345 7444 7445 7346 7444 7543 7544 7445 7543 7642 7643 7544 7642 7741 7742 7643 7741 7840 7841 7742 7840 7939 7940 7841 7939 8038 8039 7940 8038 8137 8138 8039 8137 8236 8237 8138 8236 8335 8336 8237 8335 8434 8435 8336 8434 8533 8534 8435 8533 8632 8633 8534 8632 8731 8732 8633 8731 8830 8831 8732 8830 8929 8930 8831 8929 9028 9029 8930 9028 9127 9128 9029 9127 9226 9227 9128 9226 9325 9326 9227 9325 9424 9425 9326 9424 9523 9524 9425 9523 9622 9623 9524 9622 9721 9722 9623 9721 9820 9821 9722 9820 9919 9920 9821 9919 10018 10019 9920 10018 10117 10118 10019 10117 10216 10217 10118 10216 10315 10316 10217 10315 10414 10415 10316 10414 10513 10514 10415 10513 10612 10613 10514 10612 10711 10712 10613 10711 10810 10811 10712 10810 10909 10910 10811 10909 11008 11009 10910 11008 11107 11108 11009 11107 11206 11207 11108 11206 11305 11306 11207 11305 11404 11405 11306 11404 11503 11504 11405 11503 11602 11603 11504 11602 11701 11702 11603 11701 11800 11801 11702 11800 11899 11900 11801 11899 11998 11999 11900 11998 12097 12098 11999 12097 12196 12197 12098 12196 12295 12296 12197 12295 12394 12395 12296 12394 12493 12494 12395 12493 12592 12593 12494 12592 12691 12692 12593 12691 12790 12791 12692 12790 12889 12890 12791 12889 12988 12989 12890 12988 13087 13088 12989 13087 13186 13187 13088 13186 13285 13286 13187 13285 13384 13385 13286 13384 13483 13484 13385 13483 13582 13583 13484 13582 13681 13682 13583 13681 13780 13781 13682 13780 13879 13880 13781 13879 13978 13979 13880 13978 14077 14078 13979 14077 14176 14177 14078 14176 14275 14276 14177 14275 14374 14375 14276 14374 14473 14474 14375 14473 14572 14573 14474 14572 14671 14672 14573 14671 14770 14771 14672 14770 14869 14870 14771 14869 14968 14969 14870 14968 15067 15068 14969 15067 639 640 15068 632 1901 1902 633 1901 2000 2001 1902 2000 2099 2100 2001 2099 2198 2199 2100 2198 2297 2298 2199 2297 2396 2397 2298 2396 2495 2496 2397 2495 2594 2595 2496 2594 2693 2694 2595 2693 2792 2793 2694 2792 2891 2892 2793 2891 2990 2991 2892 2990 3089 3090 2991 3089 3188 3189 3090 3188 3287 3288 3189 3287 3386 3387 3288 3386 3485 3486 3387 3485 3584 3585 3486 3584 3683 3684 3585 3683 3782 3783 3684 3782 3881 3882 3783 3881 3980 3981 3882 3980 4079 4080 3981 4079 4178 4179 4080 4178 4277 4278 4179 4277 4376 4377 4278 4376 4475 4476 4377 4475 4574 4575 4476 4574 4673 4674 4575 4673 4772 4773 4674 4772 4871 4872 4773 4871 4970 4971 4872 4970 5069 5070 4971 5069 5168 5169 5070 5168 5267 5268 5169 5267 5366 5367 5268 5366 5465 5466 5367 5465 5564 5565 5466 5564 5663 5664 5565 5663 5762 5763 5664 5762 5861 5862 5763 5861 5960 5961 5862 5960 6059 6060 5961 6059 6158 6159 6060 6158 6257 6258 6159 6257 6356 6357 6258 6356 6455 6456 6357 6455 6554 6555 6456 6554 6653 6654 6555 6653 6752 6753 6654 6752 6851 6852 6753 6851 6950 6951 6852 6950 7049 7050 6951 7049 7148 7149 7050 7148 7247 7248 7149 7247 7346 7347 7248 7346 7445 7446 7347 7445 7544 7545 7446 7544 7643 7644 7545 7643 7742 7743 7644 7742 7841 7842 7743 7841 7940 7941 7842 7940 8039 8040 7941 8039 8138 8139 8040 8138 8237 8238 8139 8237 8336 8337 8238 8336 8435 8436 8337 8435 8534 8535 8436 8534 8633 8634 8535 8633 8732 8733 8634 8732 8831 8832 8733 8831 8930 8931 8832 8930 9029 9030 8931 9029 9128 9129 9030 9128 9227 9228 9129 9227 9326 9327 9228 9326 9425 9426 9327 9425 9524 9525 9426 9524 9623 9624 9525 9623 9722 9723 9624 9722 9821 9822 9723 9821 9920 9921 9822 9920 10019 10020 9921 10019 10118 10119 10020 10118 10217 10218 10119 10217 10316 10317 10218 10316 10415 10416 10317 10415 10514 10515 10416 10514 10613 10614 10515 10613 10712 10713 10614 10712 10811 10812 10713 10811 10910 10911 10812 10910 11009 11010 10911 11009 11108 11109 11010 11108 11207 11208 11109 11207 11306 11307 11208 11306 11405 11406 11307 11405 11504 11505 11406 11504 11603 11604 11505 11603 11702 11703 11604 11702 11801 11802 11703 11801 11900 11901 11802 11900 11999 12000 11901 11999 12098 12099 12000 12098 12197 12198 12099 12197 12296 12297 12198 12296 12395 12396 12297 12395 12494 12495 12396 12494 12593 12594 12495 12593 12692 12693 12594 12692 12791 12792 12693 12791 12890 12891 12792 12890 12989 12990 12891 12989 13088 13089 12990 13088 13187 13188 13089 13187 13286 13287 13188 13286 13385 13386 13287 13385 13484 13485 13386 13484 13583 13584 13485 13583 13682 13683 13584 13682 13781 13782 13683 13781 13880 13881 13782 13880 13979 13980 13881 13979 14078 14079 13980 14078 14177 14178 14079 14177 14276 14277 14178 14276 14375 14376 14277 14375 14474 14475 14376 14474 14573 14574 14475 14573 14672 14673 14574 14672 14771 14772 14673 14771 14870 14871 14772 14870 14969 14970 14871 14969 15068 15069 14970 15068 640 641 15069 633 1902 1903 634 1902 2001 2002 1903 2001 2100 2101 2002 2100 2199 2200 2101 2199 2298 2299 2200 2298 2397 2398 2299 2397 2496 2497 2398 2496 2595 2596 2497 2595 2694 2695 2596 2694 2793 2794 2695 2793 2892 2893 2794 2892 2991 2992 2893 2991 3090 3091 2992 3090 3189 3190 3091 3189 3288 3289 3190 3288 3387 3388 3289 3387 3486 3487 3388 3486 3585 3586 3487 3585 3684 3685 3586 3684 3783 3784 3685 3783 3882 3883 3784 3882 3981 3982 3883 3981 4080 4081 3982 4080 4179 4180 4081 4179 4278 4279 4180 4278 4377 4378 4279 4377 4476 4477 4378 4476 4575 4576 4477 4575 4674 4675 4576 4674 4773 4774 4675 4773 4872 4873 4774 4872 4971 4972 4873 4971 5070 5071 4972 5070 5169 5170 5071 5169 5268 5269 5170 5268 5367 5368 5269 5367 5466 5467 5368 5466 5565 5566 5467 5565 5664 5665 5566 5664 5763 5764 5665 5763 5862 5863 5764 5862 5961 5962 5863 5961 6060 6061 5962 6060 6159 6160 6061 6159 6258 6259 6160 6258 6357 6358 6259 6357 6456 6457 6358 6456 6555 6556 6457 6555 6654 6655 6556 6654 6753 6754 6655 6753 6852 6853 6754 6852 6951 6952 6853 6951 7050 7051 6952 7050 7149 7150 7051 7149 7248 7249 7150 7248 7347 7348 7249 7347 7446 7447 7348 7446 7545 7546 7447 7545 7644 7645 7546 7644 7743 7744 7645 7743 7842 7843 7744 7842 7941 7942 7843 7941 8040 8041 7942 8040 8139 8140 8041 8139 8238 8239 8140 8238 8337 8338 8239 8337 8436 8437 8338 8436 8535 8536 8437 8535 8634 8635 8536 8634 8733 8734 8635 8733 8832 8833 8734 8832 8931 8932 8833 8931 9030 9031 8932 9030 9129 9130 9031 9129 9228 9229 9130 9228 9327 9328 9229 9327 9426 9427 9328 9426 9525 9526 9427 9525 9624 9625 9526 9624 9723 9724 9625 9723 9822 9823 9724 9822 9921 9922 9823 9921 10020 10021 9922 10020 10119 10120 10021 10119 10218 10219 10120 10218 10317 10318 10219 10317 10416 10417 10318 10416 10515 10516 10417 10515 10614 10615 10516 10614 10713 10714 10615 10713 10812 10813 10714 10812 10911 10912 10813 10911 11010 11011 10912 11010 11109 11110 11011 11109 11208 11209 11110 11208 11307 11308 11209 11307 11406 11407 11308 11406 11505 11506 11407 11505 11604 11605 11506 11604 11703 11704 11605 11703 11802 11803 11704 11802 11901 11902 11803 11901 12000 12001 11902 12000 12099 12100 12001 12099 12198 12199 12100 12198 12297 12298 12199 12297 12396 12397 12298 12396 12495 12496 12397 12495 12594 12595 12496 12594 12693 12694 12595 12693 12792 12793 12694 12792 12891 12892 12793 12891 12990 12991 12892 12990 13089 13090 12991 13089 13188 13189 13090 13188 13287 13288 13189 13287 13386 13387 13288 13386 13485 13486 13387 13485 13584 13585 13486 13584 13683 13684 13585 13683 13782 13783 13684 13782 13881 13882 13783 13881 13980 13981 13882 13980 14079 14080 13981 14079 14178 14179 14080 14178 14277 14278 14179 14277 14376 14377 14278 14376 14475 14476 14377 14475 14574 14575 14476 14574 14673 14674 14575 14673 14772 14773 14674 14772 14871 14872 14773 14871 14970 14971 14872 14970 15069 15070 14971 15069 641 642 15070 634 1903 1904 1 1903 2002 2003 1904 2002 2101 2102 2003 2101 2200 2201 2102 2200 2299 2300 2201 2299 2398 2399 2300 2398 2497 2498 2399 2497 2596 2597 2498 2596 2695 2696 2597 2695 2794 2795 2696 2794 2893 2894 2795 2893 2992 2993 2894 2992 3091 3092 2993 3091 3190 3191 3092 3190 3289 3290 3191 3289 3388 3389 3290 3388 3487 3488 3389 3487 3586 3587 3488 3586 3685 3686 3587 3685 3784 3785 3686 3784 3883 3884 3785 3883 3982 3983 3884 3982 4081 4082 3983 4081 4180 4181 4082 4180 4279 4280 4181 4279 4378 4379 4280 4378 4477 4478 4379 4477 4576 4577 4478 4576 4675 4676 4577 4675 4774 4775 4676 4774 4873 4874 4775 4873 4972 4973 4874 4972 5071 5072 4973 5071 5170 5171 5072 5170 5269 5270 5171 5269 5368 5369 5270 5368 5467 5468 5369 5467 5566 5567 5468 5566 5665 5666 5567 5665 5764 5765 5666 5764 5863 5864 5765 5863 5962 5963 5864 5962 6061 6062 5963 6061 6160 6161 6062 6160 6259 6260 6161 6259 6358 6359 6260 6358 6457 6458 6359 6457 6556 6557 6458 6556 6655 6656 6557 6655 6754 6755 6656 6754 6853 6854 6755 6853 6952 6953 6854 6952 7051 7052 6953 7051 7150 7151 7052 7150 7249 7250 7151 7249 7348 7349 7250 7348 7447 7448 7349 7447 7546 7547 7448 7546 7645 7646 7547 7645 7744 7745 7646 7744 7843 7844 7745 7843 7942 7943 7844 7942 8041 8042 7943 8041 8140 8141 8042 8140 8239 8240 8141 8239 8338 8339 8240 8338 8437 8438 8339 8437 8536 8537 8438 8536 8635 8636 8537 8635 8734 8735 8636 8734 8833 8834 8735 8833 8932 8933 8834 8932 9031 9032 8933 9031 9130 9131 9032 9130 9229 9230 9131 9229 9328 9329 9230 9328 9427 9428 9329 9427 9526 9527 9428 9526 9625 9626 9527 9625 9724 9725 9626 9724 9823 9824 9725 9823 9922 9923 9824 9922 10021 10022 9923 10021 10120 10121 10022 10120 10219 10220 10121 10219 10318 10319 10220 10318 10417 10418 10319 10417 10516 10517 10418 10516 10615 10616 10517 10615 10714 10715 10616 10714 10813 10814 10715 10813 10912 10913 10814 10912 11011 11012 10913 11011 11110 11111 11012 11110 11209 11210 11111 11209 11308 11309 11210 11308 11407 11408 11309 11407 11506 11507 11408 11506 11605 11606 11507 11605 11704 11705 11606 11704 11803 11804 11705 11803 11902 11903 11804 11902 12001 12002 11903 12001 12100 12101 12002 12100 12199 12200 12101 12199 12298 12299 12200 12298 12397 12398 12299 12397 12496 12497 12398 12496 12595 12596 12497 12595 12694 12695 12596 12694 12793 12794 12695 12793 12892 12893 12794 12892 12991 12992 12893 12991 13090 13091 12992 13090 13189 13190 13091 13189 13288 13289 13190 13288 13387 13388 13289 13387 13486 13487 13388 13486 13585 13586 13487 13585 13684 13685 13586 13684 13783 13784 13685 13783 13882 13883 13784 13882 13981 13982 13883 13981 14080 14081 13982 14080 14179 14180 14081 14179 14278 14279 14180 14278 14377 14378 14279 14377 14476 14477 14378 14476 14575 14576 14477 14575 14674 14675 14576 14674 14773 14774 14675 14773 14872 14873 14774 14872 14971 14972 14873 14971 15070 15071 14972 15070 642 5 15071 1 1904 1905 388 1904 2003 2004 1905 2003 2102 2103 2004 2102 2201 2202 2103 2201 2300 2301 2202 2300 2399 2400 2301 2399 2498 2499 2400 2498 2597 2598 2499 2597 2696 2697 2598 2696 2795 2796 2697 2795 2894 2895 2796 2894 2993 2994 2895 2993 3092 3093 2994 3092 3191 3192 3093 3191 3290 3291 3192 3290 3389 3390 3291 3389 3488 3489 3390 3488 3587 3588 3489 3587 3686 3687 3588 3686 3785 3786 3687 3785 3884 3885 3786 3884 3983 3984 3885 3983 4082 4083 3984 4082 4181 4182 4083 4181 4280 4281 4182 4280 4379 4380 4281 4379 4478 4479 4380 4478 4577 4578 4479 4577 4676 4677 4578 4676 4775 4776 4677 4775 4874 4875 4776 4874 4973 4974 4875 4973 5072 5073 4974 5072 5171 5172 5073 5171 5270 5271 5172 5270 5369 5370 5271 5369 5468 5469 5370 5468 5567 5568 5469 5567 5666 5667 5568 5666 5765 5766 5667 5765 5864 5865 5766 5864 5963 5964 5865 5963 6062 6063 5964 6062 6161 6162 6063 6161 6260 6261 6162 6260 6359 6360 6261 6359 6458 6459 6360 6458 6557 6558 6459 6557 6656 6657 6558 6656 6755 6756 6657 6755 6854 6855 6756 6854 6953 6954 6855 6953 7052 7053 6954 7052 7151 7152 7053 7151 7250 7251 7152 7250 7349 7350 7251 7349 7448 7449 7350 7448 7547 7548 7449 7547 7646 7647 7548 7646 7745 7746 7647 7745 7844 7845 7746 7844 7943 7944 7845 7943 8042 8043 7944 8042 8141 8142 8043 8141 8240 8241 8142 8240 8339 8340 8241 8339 8438 8439 8340 8438 8537 8538 8439 8537 8636 8637 8538 8636 8735 8736 8637 8735 8834 8835 8736 8834 8933 8934 8835 8933 9032 9033 8934 9032 9131 9132 9033 9131 9230 9231 9132 9230 9329 9330 9231 9329 9428 9429 9330 9428 9527 9528 9429 9527 9626 9627 9528 9626 9725 9726 9627 9725 9824 9825 9726 9824 9923 9924 9825 9923 10022 10023 9924 10022 10121 10122 10023 10121 10220 10221 10122 10220 10319 10320 10221 10319 10418 10419 10320 10418 10517 10518 10419 10517 10616 10617 10518 10616 10715 10716 10617 10715 10814 10815 10716 10814 10913 10914 10815 10913 11012 11013 10914 11012 11111 11112 11013 11111 11210 11211 11112 11210 11309 11310 11211 11309 11408 11409 11310 11408 11507 11508 11409 11507 11606 11607 11508 11606 11705 11706 11607 11705 11804 11805 11706 11804 11903 11904 11805 11903 12002 12003 11904 12002 12101 12102 12003 12101 12200 12201 12102 12200 12299 12300 12201 12299 12398 12399 12300 12398 12497 12498 12399 12497 12596 12597 12498 12596 12695 12696 12597 12695 12794 12795 12696 12794 12893 12894 12795 12893 12992 12993 12894 12992 13091 13092 12993 13091 13190 13191 13092 13190 13289 13290 13191 13289 13388 13389 13290 13388 13487 13488 13389 13487 13586 13587 13488 13586 13685 13686 13587 13685 13784 13785 13686 13784 13883 13884 13785 13883 13982 13983 13884 13982 14081 14082 13983 14081 14180 14181 14082 14180 14279 14280 14181 14279 14378 14379 14280 14378 14477 14478 14379 14477 14576 14577 14478 14576 14675 14676 14577 14675 14774 14775 14676 14774 14873 14874 14775 14873 14972 14973 14874 14972 15071 15072 14973 15071 5 408 15072 388 1905 1906 387 1905 2004 2005 1906 2004 2103 2104 2005 2103 2202 2203 2104 2202 2301 2302 2203 2301 2400 2401 2302 2400 2499 2500 2401 2499 2598 2599 2500 2598 2697 2698 2599 2697 2796 2797 2698 2796 2895 2896 2797 2895 2994 2995 2896 2994 3093 3094 2995 3093 3192 3193 3094 3192 3291 3292 3193 3291 3390 3391 3292 3390 3489 3490 3391 3489 3588 3589 3490 3588 3687 3688 3589 3687 3786 3787 3688 3786 3885 3886 3787 3885 3984 3985 3886 3984 4083 4084 3985 4083 4182 4183 4084 4182 4281 4282 4183 4281 4380 4381 4282 4380 4479 4480 4381 4479 4578 4579 4480 4578 4677 4678 4579 4677 4776 4777 4678 4776 4875 4876 4777 4875 4974 4975 4876 4974 5073 5074 4975 5073 5172 5173 5074 5172 5271 5272 5173 5271 5370 5371 5272 5370 5469 5470 5371 5469 5568 5569 5470 5568 5667 5668 5569 5667 5766 5767 5668 5766 5865 5866 5767 5865 5964 5965 5866 5964 6063 6064 5965 6063 6162 6163 6064 6162 6261 6262 6163 6261 6360 6361 6262 6360 6459 6460 6361 6459 6558 6559 6460 6558 6657 6658 6559 6657 6756 6757 6658 6756 6855 6856 6757 6855 6954 6955 6856 6954 7053 7054 6955 7053 7152 7153 7054 7152 7251 7252 7153 7251 7350 7351 7252 7350 7449 7450 7351 7449 7548 7549 7450 7548 7647 7648 7549 7647 7746 7747 7648 7746 7845 7846 7747 7845 7944 7945 7846 7944 8043 8044 7945 8043 8142 8143 8044 8142 8241 8242 8143 8241 8340 8341 8242 8340 8439 8440 8341 8439 8538 8539 8440 8538 8637 8638 8539 8637 8736 8737 8638 8736 8835 8836 8737 8835 8934 8935 8836 8934 9033 9034 8935 9033 9132 9133 9034 9132 9231 9232 9133 9231 9330 9331 9232 9330 9429 9430 9331 9429 9528 9529 9430 9528 9627 9628 9529 9627 9726 9727 9628 9726 9825 9826 9727 9825 9924 9925 9826 9924 10023 10024 9925 10023 10122 10123 10024 10122 10221 10222 10123 10221 10320 10321 10222 10320 10419 10420 10321 10419 10518 10519 10420 10518 10617 10618 10519 10617 10716 10717 10618 10716 10815 10816 10717 10815 10914 10915 10816 10914 11013 11014 10915 11013 11112 11113 11014 11112 11211 11212 11113 11211 11310 11311 11212 11310 11409 11410 11311 11409 11508 11509 11410 11508 11607 11608 11509 11607 11706 11707 11608 11706 11805 11806 11707 11805 11904 11905 11806 11904 12003 12004 11905 12003 12102 12103 12004 12102 12201 12202 12103 12201 12300 12301 12202 12300 12399 12400 12301 12399 12498 12499 12400 12498 12597 12598 12499 12597 12696 12697 12598 12696 12795 12796 12697 12795 12894 12895 12796 12894 12993 12994 12895 12993 13092 13093 12994 13092 13191 13192 13093 13191 13290 13291 13192 13290 13389 13390 13291 13389 13488 13489 13390 13488 13587 13588 13489 13587 13686 13687 13588 13686 13785 13786 13687 13785 13884 13885 13786 13884 13983 13984 13885 13983 14082 14083 13984 14082 14181 14182 14083 14181 14280 14281 14182 14280 14379 14380 14281 14379 14478 14479 14380 14478 14577 14578 14479 14577 14676 14677 14578 14676 14775 14776 14677 14775 14874 14875 14776 14874 14973 14974 14875 14973 15072 15073 14974 15072 408 409 15073 387 1906 1907 386 1906 2005 2006 1907 2005 2104 2105 2006 2104 2203 2204 2105 2203 2302 2303 2204 2302 2401 2402 2303 2401 2500 2501 2402 2500 2599 2600 2501 2599 2698 2699 2600 2698 2797 2798 2699 2797 2896 2897 2798 2896 2995 2996 2897 2995 3094 3095 2996 3094 3193 3194 3095 3193 3292 3293 3194 3292 3391 3392 3293 3391 3490 3491 3392 3490 3589 3590 3491 3589 3688 3689 3590 3688 3787 3788 3689 3787 3886 3887 3788 3886 3985 3986 3887 3985 4084 4085 3986 4084 4183 4184 4085 4183 4282 4283 4184 4282 4381 4382 4283 4381 4480 4481 4382 4480 4579 4580 4481 4579 4678 4679 4580 4678 4777 4778 4679 4777 4876 4877 4778 4876 4975 4976 4877 4975 5074 5075 4976 5074 5173 5174 5075 5173 5272 5273 5174 5272 5371 5372 5273 5371 5470 5471 5372 5470 5569 5570 5471 5569 5668 5669 5570 5668 5767 5768 5669 5767 5866 5867 5768 5866 5965 5966 5867 5965 6064 6065 5966 6064 6163 6164 6065 6163 6262 6263 6164 6262 6361 6362 6263 6361 6460 6461 6362 6460 6559 6560 6461 6559 6658 6659 6560 6658 6757 6758 6659 6757 6856 6857 6758 6856 6955 6956 6857 6955 7054 7055 6956 7054 7153 7154 7055 7153 7252 7253 7154 7252 7351 7352 7253 7351 7450 7451 7352 7450 7549 7550 7451 7549 7648 7649 7550 7648 7747 7748 7649 7747 7846 7847 7748 7846 7945 7946 7847 7945 8044 8045 7946 8044 8143 8144 8045 8143 8242 8243 8144 8242 8341 8342 8243 8341 8440 8441 8342 8440 8539 8540 8441 8539 8638 8639 8540 8638 8737 8738 8639 8737 8836 8837 8738 8836 8935 8936 8837 8935 9034 9035 8936 9034 9133 9134 9035 9133 9232 9233 9134 9232 9331 9332 9233 9331 9430 9431 9332 9430 9529 9530 9431 9529 9628 9629 9530 9628 9727 9728 9629 9727 9826 9827 9728 9826 9925 9926 9827 9925 10024 10025 9926 10024 10123 10124 10025 10123 10222 10223 10124 10222 10321 10322 10223 10321 10420 10421 10322 10420 10519 10520 10421 10519 10618 10619 10520 10618 10717 10718 10619 10717 10816 10817 10718 10816 10915 10916 10817 10915 11014 11015 10916 11014 11113 11114 11015 11113 11212 11213 11114 11212 11311 11312 11213 11311 11410 11411 11312 11410 11509 11510 11411 11509 11608 11609 11510 11608 11707 11708 11609 11707 11806 11807 11708 11806 11905 11906 11807 11905 12004 12005 11906 12004 12103 12104 12005 12103 12202 12203 12104 12202 12301 12302 12203 12301 12400 12401 12302 12400 12499 12500 12401 12499 12598 12599 12500 12598 12697 12698 12599 12697 12796 12797 12698 12796 12895 12896 12797 12895 12994 12995 12896 12994 13093 13094 12995 13093 13192 13193 13094 13192 13291 13292 13193 13291 13390 13391 13292 13390 13489 13490 13391 13489 13588 13589 13490 13588 13687 13688 13589 13687 13786 13787 13688 13786 13885 13886 13787 13885 13984 13985 13886 13984 14083 14084 13985 14083 14182 14183 14084 14182 14281 14282 14183 14281 14380 14381 14282 14380 14479 14480 14381 14479 14578 14579 14480 14578 14677 14678 14579 14677 14776 14777 14678 14776 14875 14876 14777 14875 14974 14975 14876 14974 15073 15074 14975 15073 409 410 15074 386 1907 1908 385 1907 2006 2007 1908 2006 2105 2106 2007 2105 2204 2205 2106 2204 2303 2304 2205 2303 2402 2403 2304 2402 2501 2502 2403 2501 2600 2601 2502 2600 2699 2700 2601 2699 2798 2799 2700 2798 2897 2898 2799 2897 2996 2997 2898 2996 3095 3096 2997 3095 3194 3195 3096 3194 3293 3294 3195 3293 3392 3393 3294 3392 3491 3492 3393 3491 3590 3591 3492 3590 3689 3690 3591 3689 3788 3789 3690 3788 3887 3888 3789 3887 3986 3987 3888 3986 4085 4086 3987 4085 4184 4185 4086 4184 4283 4284 4185 4283 4382 4383 4284 4382 4481 4482 4383 4481 4580 4581 4482 4580 4679 4680 4581 4679 4778 4779 4680 4778 4877 4878 4779 4877 4976 4977 4878 4976 5075 5076 4977 5075 5174 5175 5076 5174 5273 5274 5175 5273 5372 5373 5274 5372 5471 5472 5373 5471 5570 5571 5472 5570 5669 5670 5571 5669 5768 5769 5670 5768 5867 5868 5769 5867 5966 5967 5868 5966 6065 6066 5967 6065 6164 6165 6066 6164 6263 6264 6165 6263 6362 6363 6264 6362 6461 6462 6363 6461 6560 6561 6462 6560 6659 6660 6561 6659 6758 6759 6660 6758 6857 6858 6759 6857 6956 6957 6858 6956 7055 7056 6957 7055 7154 7155 7056 7154 7253 7254 7155 7253 7352 7353 7254 7352 7451 7452 7353 7451 7550 7551 7452 7550 7649 7650 7551 7649 7748 7749 7650 7748 7847 7848 7749 7847 7946 7947 7848 7946 8045 8046 7947 8045 8144 8145 8046 8144 8243 8244 8145 8243 8342 8343 8244 8342 8441 8442 8343 8441 8540 8541 8442 8540 8639 8640 8541 8639 8738 8739 8640 8738 8837 8838 8739 8837 8936 8937 8838 8936 9035 9036 8937 9035 9134 9135 9036 9134 9233 9234 9135 9233 9332 9333 9234 9332 9431 9432 9333 9431 9530 9531 9432 9530 9629 9630 9531 9629 9728 9729 9630 9728 9827 9828 9729 9827 9926 9927 9828 9926 10025 10026 9927 10025 10124 10125 10026 10124 10223 10224 10125 10223 10322 10323 10224 10322 10421 10422 10323 10421 10520 10521 10422 10520 10619 10620 10521 10619 10718 10719 10620 10718 10817 10818 10719 10817 10916 10917 10818 10916 11015 11016 10917 11015 11114 11115 11016 11114 11213 11214 11115 11213 11312 11313 11214 11312 11411 11412 11313 11411 11510 11511 11412 11510 11609 11610 11511 11609 11708 11709 11610 11708 11807 11808 11709 11807 11906 11907 11808 11906 12005 12006 11907 12005 12104 12105 12006 12104 12203 12204 12105 12203 12302 12303 12204 12302 12401 12402 12303 12401 12500 12501 12402 12500 12599 12600 12501 12599 12698 12699 12600 12698 12797 12798 12699 12797 12896 12897 12798 12896 12995 12996 12897 12995 13094 13095 12996 13094 13193 13194 13095 13193 13292 13293 13194 13292 13391 13392 13293 13391 13490 13491 13392 13490 13589 13590 13491 13589 13688 13689 13590 13688 13787 13788 13689 13787 13886 13887 13788 13886 13985 13986 13887 13985 14084 14085 13986 14084 14183 14184 14085 14183 14282 14283 14184 14282 14381 14382 14283 14381 14480 14481 14382 14480 14579 14580 14481 14579 14678 14679 14580 14678 14777 14778 14679 14777 14876 14877 14778 14876 14975 14976 14877 14975 15074 15075 14976 15074 410 411 15075 385 1908 1909 384 1908 2007 2008 1909 2007 2106 2107 2008 2106 2205 2206 2107 2205 2304 2305 2206 2304 2403 2404 2305 2403 2502 2503 2404 2502 2601 2602 2503 2601 2700 2701 2602 2700 2799 2800 2701 2799 2898 2899 2800 2898 2997 2998 2899 2997 3096 3097 2998 3096 3195 3196 3097 3195 3294 3295 3196 3294 3393 3394 3295 3393 3492 3493 3394 3492 3591 3592 3493 3591 3690 3691 3592 3690 3789 3790 3691 3789 3888 3889 3790 3888 3987 3988 3889 3987 4086 4087 3988 4086 4185 4186 4087 4185 4284 4285 4186 4284 4383 4384 4285 4383 4482 4483 4384 4482 4581 4582 4483 4581 4680 4681 4582 4680 4779 4780 4681 4779 4878 4879 4780 4878 4977 4978 4879 4977 5076 5077 4978 5076 5175 5176 5077 5175 5274 5275 5176 5274 5373 5374 5275 5373 5472 5473 5374 5472 5571 5572 5473 5571 5670 5671 5572 5670 5769 5770 5671 5769 5868 5869 5770 5868 5967 5968 5869 5967 6066 6067 5968 6066 6165 6166 6067 6165 6264 6265 6166 6264 6363 6364 6265 6363 6462 6463 6364 6462 6561 6562 6463 6561 6660 6661 6562 6660 6759 6760 6661 6759 6858 6859 6760 6858 6957 6958 6859 6957 7056 7057 6958 7056 7155 7156 7057 7155 7254 7255 7156 7254 7353 7354 7255 7353 7452 7453 7354 7452 7551 7552 7453 7551 7650 7651 7552 7650 7749 7750 7651 7749 7848 7849 7750 7848 7947 7948 7849 7947 8046 8047 7948 8046 8145 8146 8047 8145 8244 8245 8146 8244 8343 8344 8245 8343 8442 8443 8344 8442 8541 8542 8443 8541 8640 8641 8542 8640 8739 8740 8641 8739 8838 8839 8740 8838 8937 8938 8839 8937 9036 9037 8938 9036 9135 9136 9037 9135 9234 9235 9136 9234 9333 9334 9235 9333 9432 9433 9334 9432 9531 9532 9433 9531 9630 9631 9532 9630 9729 9730 9631 9729 9828 9829 9730 9828 9927 9928 9829 9927 10026 10027 9928 10026 10125 10126 10027 10125 10224 10225 10126 10224 10323 10324 10225 10323 10422 10423 10324 10422 10521 10522 10423 10521 10620 10621 10522 10620 10719 10720 10621 10719 10818 10819 10720 10818 10917 10918 10819 10917 11016 11017 10918 11016 11115 11116 11017 11115 11214 11215 11116 11214 11313 11314 11215 11313 11412 11413 11314 11412 11511 11512 11413 11511 11610 11611 11512 11610 11709 11710 11611 11709 11808 11809 11710 11808 11907 11908 11809 11907 12006 12007 11908 12006 12105 12106 12007 12105 12204 12205 12106 12204 12303 12304 12205 12303 12402 12403 12304 12402 12501 12502 12403 12501 12600 12601 12502 12600 12699 12700 12601 12699 12798 12799 12700 12798 12897 12898 12799 12897 12996 12997 12898 12996 13095 13096 12997 13095 13194 13195 13096 13194 13293 13294 13195 13293 13392 13393 13294 13392 13491 13492 13393 13491 13590 13591 13492 13590 13689 13690 13591 13689 13788 13789 13690 13788 13887 13888 13789 13887 13986 13987 13888 13986 14085 14086 13987 14085 14184 14185 14086 14184 14283 14284 14185 14283 14382 14383 14284 14382 14481 14482 14383 14481 14580 14581 14482 14580 14679 14680 14581 14679 14778 14779 14680 14778 14877 14878 14779 14877 14976 14977 14878 14976 15075 15076 14977 15075 411 412 15076 384 1909 1910 383 1909 2008 2009 1910 2008 2107 2108 2009 2107 2206 2207 2108 2206 2305 2306 2207 2305 2404 2405 2306 2404 2503 2504 2405 2503 2602 2603 2504 2602 2701 2702 2603 2701 2800 2801 2702 2800 2899 2900 2801 2899 2998 2999 2900 2998 3097 3098 2999 3097 3196 3197 3098 3196 3295 3296 3197 3295 3394 3395 3296 3394 3493 3494 3395 3493 3592 3593 3494 3592 3691 3692 3593 3691 3790 3791 3692 3790 3889 3890 3791 3889 3988 3989 3890 3988 4087 4088 3989 4087 4186 4187 4088 4186 4285 4286 4187 4285 4384 4385 4286 4384 4483 4484 4385 4483 4582 4583 4484 4582 4681 4682 4583 4681 4780 4781 4682 4780 4879 4880 4781 4879 4978 4979 4880 4978 5077 5078 4979 5077 5176 5177 5078 5176 5275 5276 5177 5275 5374 5375 5276 5374 5473 5474 5375 5473 5572 5573 5474 5572 5671 5672 5573 5671 5770 5771 5672 5770 5869 5870 5771 5869 5968 5969 5870 5968 6067 6068 5969 6067 6166 6167 6068 6166 6265 6266 6167 6265 6364 6365 6266 6364 6463 6464 6365 6463 6562 6563 6464 6562 6661 6662 6563 6661 6760 6761 6662 6760 6859 6860 6761 6859 6958 6959 6860 6958 7057 7058 6959 7057 7156 7157 7058 7156 7255 7256 7157 7255 7354 7355 7256 7354 7453 7454 7355 7453 7552 7553 7454 7552 7651 7652 7553 7651 7750 7751 7652 7750 7849 7850 7751 7849 7948 7949 7850 7948 8047 8048 7949 8047 8146 8147 8048 8146 8245 8246 8147 8245 8344 8345 8246 8344 8443 8444 8345 8443 8542 8543 8444 8542 8641 8642 8543 8641 8740 8741 8642 8740 8839 8840 8741 8839 8938 8939 8840 8938 9037 9038 8939 9037 9136 9137 9038 9136 9235 9236 9137 9235 9334 9335 9236 9334 9433 9434 9335 9433 9532 9533 9434 9532 9631 9632 9533 9631 9730 9731 9632 9730 9829 9830 9731 9829 9928 9929 9830 9928 10027 10028 9929 10027 10126 10127 10028 10126 10225 10226 10127 10225 10324 10325 10226 10324 10423 10424 10325 10423 10522 10523 10424 10522 10621 10622 10523 10621 10720 10721 10622 10720 10819 10820 10721 10819 10918 10919 10820 10918 11017 11018 10919 11017 11116 11117 11018 11116 11215 11216 11117 11215 11314 11315 11216 11314 11413 11414 11315 11413 11512 11513 11414 11512 11611 11612 11513 11611 11710 11711 11612 11710 11809 11810 11711 11809 11908 11909 11810 11908 12007 12008 11909 12007 12106 12107 12008 12106 12205 12206 12107 12205 12304 12305 12206 12304 12403 12404 12305 12403 12502 12503 12404 12502 12601 12602 12503 12601 12700 12701 12602 12700 12799 12800 12701 12799 12898 12899 12800 12898 12997 12998 12899 12997 13096 13097 12998 13096 13195 13196 13097 13195 13294 13295 13196 13294 13393 13394 13295 13393 13492 13493 13394 13492 13591 13592 13493 13591 13690 13691 13592 13690 13789 13790 13691 13789 13888 13889 13790 13888 13987 13988 13889 13987 14086 14087 13988 14086 14185 14186 14087 14185 14284 14285 14186 14284 14383 14384 14285 14383 14482 14483 14384 14482 14581 14582 14483 14581 14680 14681 14582 14680 14779 14780 14681 14779 14878 14879 14780 14878 14977 14978 14879 14977 15076 15077 14978 15076 412 413 15077 383 1910 1911 382 1910 2009 2010 1911 2009 2108 2109 2010 2108 2207 2208 2109 2207 2306 2307 2208 2306 2405 2406 2307 2405 2504 2505 2406 2504 2603 2604 2505 2603 2702 2703 2604 2702 2801 2802 2703 2801 2900 2901 2802 2900 2999 3000 2901 2999 3098 3099 3000 3098 3197 3198 3099 3197 3296 3297 3198 3296 3395 3396 3297 3395 3494 3495 3396 3494 3593 3594 3495 3593 3692 3693 3594 3692 3791 3792 3693 3791 3890 3891 3792 3890 3989 3990 3891 3989 4088 4089 3990 4088 4187 4188 4089 4187 4286 4287 4188 4286 4385 4386 4287 4385 4484 4485 4386 4484 4583 4584 4485 4583 4682 4683 4584 4682 4781 4782 4683 4781 4880 4881 4782 4880 4979 4980 4881 4979 5078 5079 4980 5078 5177 5178 5079 5177 5276 5277 5178 5276 5375 5376 5277 5375 5474 5475 5376 5474 5573 5574 5475 5573 5672 5673 5574 5672 5771 5772 5673 5771 5870 5871 5772 5870 5969 5970 5871 5969 6068 6069 5970 6068 6167 6168 6069 6167 6266 6267 6168 6266 6365 6366 6267 6365 6464 6465 6366 6464 6563 6564 6465 6563 6662 6663 6564 6662 6761 6762 6663 6761 6860 6861 6762 6860 6959 6960 6861 6959 7058 7059 6960 7058 7157 7158 7059 7157 7256 7257 7158 7256 7355 7356 7257 7355 7454 7455 7356 7454 7553 7554 7455 7553 7652 7653 7554 7652 7751 7752 7653 7751 7850 7851 7752 7850 7949 7950 7851 7949 8048 8049 7950 8048 8147 8148 8049 8147 8246 8247 8148 8246 8345 8346 8247 8345 8444 8445 8346 8444 8543 8544 8445 8543 8642 8643 8544 8642 8741 8742 8643 8741 8840 8841 8742 8840 8939 8940 8841 8939 9038 9039 8940 9038 9137 9138 9039 9137 9236 9237 9138 9236 9335 9336 9237 9335 9434 9435 9336 9434 9533 9534 9435 9533 9632 9633 9534 9632 9731 9732 9633 9731 9830 9831 9732 9830 9929 9930 9831 9929 10028 10029 9930 10028 10127 10128 10029 10127 10226 10227 10128 10226 10325 10326 10227 10325 10424 10425 10326 10424 10523 10524 10425 10523 10622 10623 10524 10622 10721 10722 10623 10721 10820 10821 10722 10820 10919 10920 10821 10919 11018 11019 10920 11018 11117 11118 11019 11117 11216 11217 11118 11216 11315 11316 11217 11315 11414 11415 11316 11414 11513 11514 11415 11513 11612 11613 11514 11612 11711 11712 11613 11711 11810 11811 11712 11810 11909 11910 11811 11909 12008 12009 11910 12008 12107 12108 12009 12107 12206 12207 12108 12206 12305 12306 12207 12305 12404 12405 12306 12404 12503 12504 12405 12503 12602 12603 12504 12602 12701 12702 12603 12701 12800 12801 12702 12800 12899 12900 12801 12899 12998 12999 12900 12998 13097 13098 12999 13097 13196 13197 13098 13196 13295 13296 13197 13295 13394 13395 13296 13394 13493 13494 13395 13493 13592 13593 13494 13592 13691 13692 13593 13691 13790 13791 13692 13790 13889 13890 13791 13889 13988 13989 13890 13988 14087 14088 13989 14087 14186 14187 14088 14186 14285 14286 14187 14285 14384 14385 14286 14384 14483 14484 14385 14483 14582 14583 14484 14582 14681 14682 14583 14681 14780 14781 14682 14780 14879 14880 14781 14879 14978 14979 14880 14978 15077 15078 14979 15077 413 414 15078 382 1911 1912 381 1911 2010 2011 1912 2010 2109 2110 2011 2109 2208 2209 2110 2208 2307 2308 2209 2307 2406 2407 2308 2406 2505 2506 2407 2505 2604 2605 2506 2604 2703 2704 2605 2703 2802 2803 2704 2802 2901 2902 2803 2901 3000 3001 2902 3000 3099 3100 3001 3099 3198 3199 3100 3198 3297 3298 3199 3297 3396 3397 3298 3396 3495 3496 3397 3495 3594 3595 3496 3594 3693 3694 3595 3693 3792 3793 3694 3792 3891 3892 3793 3891 3990 3991 3892 3990 4089 4090 3991 4089 4188 4189 4090 4188 4287 4288 4189 4287 4386 4387 4288 4386 4485 4486 4387 4485 4584 4585 4486 4584 4683 4684 4585 4683 4782 4783 4684 4782 4881 4882 4783 4881 4980 4981 4882 4980 5079 5080 4981 5079 5178 5179 5080 5178 5277 5278 5179 5277 5376 5377 5278 5376 5475 5476 5377 5475 5574 5575 5476 5574 5673 5674 5575 5673 5772 5773 5674 5772 5871 5872 5773 5871 5970 5971 5872 5970 6069 6070 5971 6069 6168 6169 6070 6168 6267 6268 6169 6267 6366 6367 6268 6366 6465 6466 6367 6465 6564 6565 6466 6564 6663 6664 6565 6663 6762 6763 6664 6762 6861 6862 6763 6861 6960 6961 6862 6960 7059 7060 6961 7059 7158 7159 7060 7158 7257 7258 7159 7257 7356 7357 7258 7356 7455 7456 7357 7455 7554 7555 7456 7554 7653 7654 7555 7653 7752 7753 7654 7752 7851 7852 7753 7851 7950 7951 7852 7950 8049 8050 7951 8049 8148 8149 8050 8148 8247 8248 8149 8247 8346 8347 8248 8346 8445 8446 8347 8445 8544 8545 8446 8544 8643 8644 8545 8643 8742 8743 8644 8742 8841 8842 8743 8841 8940 8941 8842 8940 9039 9040 8941 9039 9138 9139 9040 9138 9237 9238 9139 9237 9336 9337 9238 9336 9435 9436 9337 9435 9534 9535 9436 9534 9633 9634 9535 9633 9732 9733 9634 9732 9831 9832 9733 9831 9930 9931 9832 9930 10029 10030 9931 10029 10128 10129 10030 10128 10227 10228 10129 10227 10326 10327 10228 10326 10425 10426 10327 10425 10524 10525 10426 10524 10623 10624 10525 10623 10722 10723 10624 10722 10821 10822 10723 10821 10920 10921 10822 10920 11019 11020 10921 11019 11118 11119 11020 11118 11217 11218 11119 11217 11316 11317 11218 11316 11415 11416 11317 11415 11514 11515 11416 11514 11613 11614 11515 11613 11712 11713 11614 11712 11811 11812 11713 11811 11910 11911 11812 11910 12009 12010 11911 12009 12108 12109 12010 12108 12207 12208 12109 12207 12306 12307 12208 12306 12405 12406 12307 12405 12504 12505 12406 12504 12603 12604 12505 12603 12702 12703 12604 12702 12801 12802 12703 12801 12900 12901 12802 12900 12999 13000 12901 12999 13098 13099 13000 13098 13197 13198 13099 13197 13296 13297 13198 13296 13395 13396 13297 13395 13494 13495 13396 13494 13593 13594 13495 13593 13692 13693 13594 13692 13791 13792 13693 13791 13890 13891 13792 13890 13989 13990 13891 13989 14088 14089 13990 14088 14187 14188 14089 14187 14286 14287 14188 14286 14385 14386 14287 14385 14484 14485 14386 14484 14583 14584 14485 14583 14682 14683 14584 14682 14781 14782 14683 14781 14880 14881 14782 14880 14979 14980 14881 14979 15078 15079 14980 15078 414 415 15079 381 1912 1913 380 1912 2011 2012 1913 2011 2110 2111 2012 2110 2209 2210 2111 2209 2308 2309 2210 2308 2407 2408 2309 2407 2506 2507 2408 2506 2605 2606 2507 2605 2704 2705 2606 2704 2803 2804 2705 2803 2902 2903 2804 2902 3001 3002 2903 3001 3100 3101 3002 3100 3199 3200 3101 3199 3298 3299 3200 3298 3397 3398 3299 3397 3496 3497 3398 3496 3595 3596 3497 3595 3694 3695 3596 3694 3793 3794 3695 3793 3892 3893 3794 3892 3991 3992 3893 3991 4090 4091 3992 4090 4189 4190 4091 4189 4288 4289 4190 4288 4387 4388 4289 4387 4486 4487 4388 4486 4585 4586 4487 4585 4684 4685 4586 4684 4783 4784 4685 4783 4882 4883 4784 4882 4981 4982 4883 4981 5080 5081 4982 5080 5179 5180 5081 5179 5278 5279 5180 5278 5377 5378 5279 5377 5476 5477 5378 5476 5575 5576 5477 5575 5674 5675 5576 5674 5773 5774 5675 5773 5872 5873 5774 5872 5971 5972 5873 5971 6070 6071 5972 6070 6169 6170 6071 6169 6268 6269 6170 6268 6367 6368 6269 6367 6466 6467 6368 6466 6565 6566 6467 6565 6664 6665 6566 6664 6763 6764 6665 6763 6862 6863 6764 6862 6961 6962 6863 6961 7060 7061 6962 7060 7159 7160 7061 7159 7258 7259 7160 7258 7357 7358 7259 7357 7456 7457 7358 7456 7555 7556 7457 7555 7654 7655 7556 7654 7753 7754 7655 7753 7852 7853 7754 7852 7951 7952 7853 7951 8050 8051 7952 8050 8149 8150 8051 8149 8248 8249 8150 8248 8347 8348 8249 8347 8446 8447 8348 8446 8545 8546 8447 8545 8644 8645 8546 8644 8743 8744 8645 8743 8842 8843 8744 8842 8941 8942 8843 8941 9040 9041 8942 9040 9139 9140 9041 9139 9238 9239 9140 9238 9337 9338 9239 9337 9436 9437 9338 9436 9535 9536 9437 9535 9634 9635 9536 9634 9733 9734 9635 9733 9832 9833 9734 9832 9931 9932 9833 9931 10030 10031 9932 10030 10129 10130 10031 10129 10228 10229 10130 10228 10327 10328 10229 10327 10426 10427 10328 10426 10525 10526 10427 10525 10624 10625 10526 10624 10723 10724 10625 10723 10822 10823 10724 10822 10921 10922 10823 10921 11020 11021 10922 11020 11119 11120 11021 11119 11218 11219 11120 11218 11317 11318 11219 11317 11416 11417 11318 11416 11515 11516 11417 11515 11614 11615 11516 11614 11713 11714 11615 11713 11812 11813 11714 11812 11911 11912 11813 11911 12010 12011 11912 12010 12109 12110 12011 12109 12208 12209 12110 12208 12307 12308 12209 12307 12406 12407 12308 12406 12505 12506 12407 12505 12604 12605 12506 12604 12703 12704 12605 12703 12802 12803 12704 12802 12901 12902 12803 12901 13000 13001 12902 13000 13099 13100 13001 13099 13198 13199 13100 13198 13297 13298 13199 13297 13396 13397 13298 13396 13495 13496 13397 13495 13594 13595 13496 13594 13693 13694 13595 13693 13792 13793 13694 13792 13891 13892 13793 13891 13990 13991 13892 13990 14089 14090 13991 14089 14188 14189 14090 14188 14287 14288 14189 14287 14386 14387 14288 14386 14485 14486 14387 14485 14584 14585 14486 14584 14683 14684 14585 14683 14782 14783 14684 14782 14881 14882 14783 14881 14980 14981 14882 14980 15079 15080 14981 15079 415 416 15080 380 1913 1914 379 1913 2012 2013 1914 2012 2111 2112 2013 2111 2210 2211 2112 2210 2309 2310 2211 2309 2408 2409 2310 2408 2507 2508 2409 2507 2606 2607 2508 2606 2705 2706 2607 2705 2804 2805 2706 2804 2903 2904 2805 2903 3002 3003 2904 3002 3101 3102 3003 3101 3200 3201 3102 3200 3299 3300 3201 3299 3398 3399 3300 3398 3497 3498 3399 3497 3596 3597 3498 3596 3695 3696 3597 3695 3794 3795 3696 3794 3893 3894 3795 3893 3992 3993 3894 3992 4091 4092 3993 4091 4190 4191 4092 4190 4289 4290 4191 4289 4388 4389 4290 4388 4487 4488 4389 4487 4586 4587 4488 4586 4685 4686 4587 4685 4784 4785 4686 4784 4883 4884 4785 4883 4982 4983 4884 4982 5081 5082 4983 5081 5180 5181 5082 5180 5279 5280 5181 5279 5378 5379 5280 5378 5477 5478 5379 5477 5576 5577 5478 5576 5675 5676 5577 5675 5774 5775 5676 5774 5873 5874 5775 5873 5972 5973 5874 5972 6071 6072 5973 6071 6170 6171 6072 6170 6269 6270 6171 6269 6368 6369 6270 6368 6467 6468 6369 6467 6566 6567 6468 6566 6665 6666 6567 6665 6764 6765 6666 6764 6863 6864 6765 6863 6962 6963 6864 6962 7061 7062 6963 7061 7160 7161 7062 7160 7259 7260 7161 7259 7358 7359 7260 7358 7457 7458 7359 7457 7556 7557 7458 7556 7655 7656 7557 7655 7754 7755 7656 7754 7853 7854 7755 7853 7952 7953 7854 7952 8051 8052 7953 8051 8150 8151 8052 8150 8249 8250 8151 8249 8348 8349 8250 8348 8447 8448 8349 8447 8546 8547 8448 8546 8645 8646 8547 8645 8744 8745 8646 8744 8843 8844 8745 8843 8942 8943 8844 8942 9041 9042 8943 9041 9140 9141 9042 9140 9239 9240 9141 9239 9338 9339 9240 9338 9437 9438 9339 9437 9536 9537 9438 9536 9635 9636 9537 9635 9734 9735 9636 9734 9833 9834 9735 9833 9932 9933 9834 9932 10031 10032 9933 10031 10130 10131 10032 10130 10229 10230 10131 10229 10328 10329 10230 10328 10427 10428 10329 10427 10526 10527 10428 10526 10625 10626 10527 10625 10724 10725 10626 10724 10823 10824 10725 10823 10922 10923 10824 10922 11021 11022 10923 11021 11120 11121 11022 11120 11219 11220 11121 11219 11318 11319 11220 11318 11417 11418 11319 11417 11516 11517 11418 11516 11615 11616 11517 11615 11714 11715 11616 11714 11813 11814 11715 11813 11912 11913 11814 11912 12011 12012 11913 12011 12110 12111 12012 12110 12209 12210 12111 12209 12308 12309 12210 12308 12407 12408 12309 12407 12506 12507 12408 12506 12605 12606 12507 12605 12704 12705 12606 12704 12803 12804 12705 12803 12902 12903 12804 12902 13001 13002 12903 13001 13100 13101 13002 13100 13199 13200 13101 13199 13298 13299 13200 13298 13397 13398 13299 13397 13496 13497 13398 13496 13595 13596 13497 13595 13694 13695 13596 13694 13793 13794 13695 13793 13892 13893 13794 13892 13991 13992 13893 13991 14090 14091 13992 14090 14189 14190 14091 14189 14288 14289 14190 14288 14387 14388 14289 14387 14486 14487 14388 14486 14585 14586 14487 14585 14684 14685 14586 14684 14783 14784 14685 14783 14882 14883 14784 14882 14981 14982 14883 14981 15080 15081 14982 15080 416 417 15081 379 1914 1915 378 1914 2013 2014 1915 2013 2112 2113 2014 2112 2211 2212 2113 2211 2310 2311 2212 2310 2409 2410 2311 2409 2508 2509 2410 2508 2607 2608 2509 2607 2706 2707 2608 2706 2805 2806 2707 2805 2904 2905 2806 2904 3003 3004 2905 3003 3102 3103 3004 3102 3201 3202 3103 3201 3300 3301 3202 3300 3399 3400 3301 3399 3498 3499 3400 3498 3597 3598 3499 3597 3696 3697 3598 3696 3795 3796 3697 3795 3894 3895 3796 3894 3993 3994 3895 3993 4092 4093 3994 4092 4191 4192 4093 4191 4290 4291 4192 4290 4389 4390 4291 4389 4488 4489 4390 4488 4587 4588 4489 4587 4686 4687 4588 4686 4785 4786 4687 4785 4884 4885 4786 4884 4983 4984 4885 4983 5082 5083 4984 5082 5181 5182 5083 5181 5280 5281 5182 5280 5379 5380 5281 5379 5478 5479 5380 5478 5577 5578 5479 5577 5676 5677 5578 5676 5775 5776 5677 5775 5874 5875 5776 5874 5973 5974 5875 5973 6072 6073 5974 6072 6171 6172 6073 6171 6270 6271 6172 6270 6369 6370 6271 6369 6468 6469 6370 6468 6567 6568 6469 6567 6666 6667 6568 6666 6765 6766 6667 6765 6864 6865 6766 6864 6963 6964 6865 6963 7062 7063 6964 7062 7161 7162 7063 7161 7260 7261 7162 7260 7359 7360 7261 7359 7458 7459 7360 7458 7557 7558 7459 7557 7656 7657 7558 7656 7755 7756 7657 7755 7854 7855 7756 7854 7953 7954 7855 7953 8052 8053 7954 8052 8151 8152 8053 8151 8250 8251 8152 8250 8349 8350 8251 8349 8448 8449 8350 8448 8547 8548 8449 8547 8646 8647 8548 8646 8745 8746 8647 8745 8844 8845 8746 8844 8943 8944 8845 8943 9042 9043 8944 9042 9141 9142 9043 9141 9240 9241 9142 9240 9339 9340 9241 9339 9438 9439 9340 9438 9537 9538 9439 9537 9636 9637 9538 9636 9735 9736 9637 9735 9834 9835 9736 9834 9933 9934 9835 9933 10032 10033 9934 10032 10131 10132 10033 10131 10230 10231 10132 10230 10329 10330 10231 10329 10428 10429 10330 10428 10527 10528 10429 10527 10626 10627 10528 10626 10725 10726 10627 10725 10824 10825 10726 10824 10923 10924 10825 10923 11022 11023 10924 11022 11121 11122 11023 11121 11220 11221 11122 11220 11319 11320 11221 11319 11418 11419 11320 11418 11517 11518 11419 11517 11616 11617 11518 11616 11715 11716 11617 11715 11814 11815 11716 11814 11913 11914 11815 11913 12012 12013 11914 12012 12111 12112 12013 12111 12210 12211 12112 12210 12309 12310 12211 12309 12408 12409 12310 12408 12507 12508 12409 12507 12606 12607 12508 12606 12705 12706 12607 12705 12804 12805 12706 12804 12903 12904 12805 12903 13002 13003 12904 13002 13101 13102 13003 13101 13200 13201 13102 13200 13299 13300 13201 13299 13398 13399 13300 13398 13497 13498 13399 13497 13596 13597 13498 13596 13695 13696 13597 13695 13794 13795 13696 13794 13893 13894 13795 13893 13992 13993 13894 13992 14091 14092 13993 14091 14190 14191 14092 14190 14289 14290 14191 14289 14388 14389 14290 14388 14487 14488 14389 14487 14586 14587 14488 14586 14685 14686 14587 14685 14784 14785 14686 14784 14883 14884 14785 14883 14982 14983 14884 14982 15081 15082 14983 15081 417 418 15082 378 1915 1916 377 1915 2014 2015 1916 2014 2113 2114 2015 2113 2212 2213 2114 2212 2311 2312 2213 2311 2410 2411 2312 2410 2509 2510 2411 2509 2608 2609 2510 2608 2707 2708 2609 2707 2806 2807 2708 2806 2905 2906 2807 2905 3004 3005 2906 3004 3103 3104 3005 3103 3202 3203 3104 3202 3301 3302 3203 3301 3400 3401 3302 3400 3499 3500 3401 3499 3598 3599 3500 3598 3697 3698 3599 3697 3796 3797 3698 3796 3895 3896 3797 3895 3994 3995 3896 3994 4093 4094 3995 4093 4192 4193 4094 4192 4291 4292 4193 4291 4390 4391 4292 4390 4489 4490 4391 4489 4588 4589 4490 4588 4687 4688 4589 4687 4786 4787 4688 4786 4885 4886 4787 4885 4984 4985 4886 4984 5083 5084 4985 5083 5182 5183 5084 5182 5281 5282 5183 5281 5380 5381 5282 5380 5479 5480 5381 5479 5578 5579 5480 5578 5677 5678 5579 5677 5776 5777 5678 5776 5875 5876 5777 5875 5974 5975 5876 5974 6073 6074 5975 6073 6172 6173 6074 6172 6271 6272 6173 6271 6370 6371 6272 6370 6469 6470 6371 6469 6568 6569 6470 6568 6667 6668 6569 6667 6766 6767 6668 6766 6865 6866 6767 6865 6964 6965 6866 6964 7063 7064 6965 7063 7162 7163 7064 7162 7261 7262 7163 7261 7360 7361 7262 7360 7459 7460 7361 7459 7558 7559 7460 7558 7657 7658 7559 7657 7756 7757 7658 7756 7855 7856 7757 7855 7954 7955 7856 7954 8053 8054 7955 8053 8152 8153 8054 8152 8251 8252 8153 8251 8350 8351 8252 8350 8449 8450 8351 8449 8548 8549 8450 8548 8647 8648 8549 8647 8746 8747 8648 8746 8845 8846 8747 8845 8944 8945 8846 8944 9043 9044 8945 9043 9142 9143 9044 9142 9241 9242 9143 9241 9340 9341 9242 9340 9439 9440 9341 9439 9538 9539 9440 9538 9637 9638 9539 9637 9736 9737 9638 9736 9835 9836 9737 9835 9934 9935 9836 9934 10033 10034 9935 10033 10132 10133 10034 10132 10231 10232 10133 10231 10330 10331 10232 10330 10429 10430 10331 10429 10528 10529 10430 10528 10627 10628 10529 10627 10726 10727 10628 10726 10825 10826 10727 10825 10924 10925 10826 10924 11023 11024 10925 11023 11122 11123 11024 11122 11221 11222 11123 11221 11320 11321 11222 11320 11419 11420 11321 11419 11518 11519 11420 11518 11617 11618 11519 11617 11716 11717 11618 11716 11815 11816 11717 11815 11914 11915 11816 11914 12013 12014 11915 12013 12112 12113 12014 12112 12211 12212 12113 12211 12310 12311 12212 12310 12409 12410 12311 12409 12508 12509 12410 12508 12607 12608 12509 12607 12706 12707 12608 12706 12805 12806 12707 12805 12904 12905 12806 12904 13003 13004 12905 13003 13102 13103 13004 13102 13201 13202 13103 13201 13300 13301 13202 13300 13399 13400 13301 13399 13498 13499 13400 13498 13597 13598 13499 13597 13696 13697 13598 13696 13795 13796 13697 13795 13894 13895 13796 13894 13993 13994 13895 13993 14092 14093 13994 14092 14191 14192 14093 14191 14290 14291 14192 14290 14389 14390 14291 14389 14488 14489 14390 14488 14587 14588 14489 14587 14686 14687 14588 14686 14785 14786 14687 14785 14884 14885 14786 14884 14983 14984 14885 14983 15082 15083 14984 15082 418 419 15083 377 1916 1917 376 1916 2015 2016 1917 2015 2114 2115 2016 2114 2213 2214 2115 2213 2312 2313 2214 2312 2411 2412 2313 2411 2510 2511 2412 2510 2609 2610 2511 2609 2708 2709 2610 2708 2807 2808 2709 2807 2906 2907 2808 2906 3005 3006 2907 3005 3104 3105 3006 3104 3203 3204 3105 3203 3302 3303 3204 3302 3401 3402 3303 3401 3500 3501 3402 3500 3599 3600 3501 3599 3698 3699 3600 3698 3797 3798 3699 3797 3896 3897 3798 3896 3995 3996 3897 3995 4094 4095 3996 4094 4193 4194 4095 4193 4292 4293 4194 4292 4391 4392 4293 4391 4490 4491 4392 4490 4589 4590 4491 4589 4688 4689 4590 4688 4787 4788 4689 4787 4886 4887 4788 4886 4985 4986 4887 4985 5084 5085 4986 5084 5183 5184 5085 5183 5282 5283 5184 5282 5381 5382 5283 5381 5480 5481 5382 5480 5579 5580 5481 5579 5678 5679 5580 5678 5777 5778 5679 5777 5876 5877 5778 5876 5975 5976 5877 5975 6074 6075 5976 6074 6173 6174 6075 6173 6272 6273 6174 6272 6371 6372 6273 6371 6470 6471 6372 6470 6569 6570 6471 6569 6668 6669 6570 6668 6767 6768 6669 6767 6866 6867 6768 6866 6965 6966 6867 6965 7064 7065 6966 7064 7163 7164 7065 7163 7262 7263 7164 7262 7361 7362 7263 7361 7460 7461 7362 7460 7559 7560 7461 7559 7658 7659 7560 7658 7757 7758 7659 7757 7856 7857 7758 7856 7955 7956 7857 7955 8054 8055 7956 8054 8153 8154 8055 8153 8252 8253 8154 8252 8351 8352 8253 8351 8450 8451 8352 8450 8549 8550 8451 8549 8648 8649 8550 8648 8747 8748 8649 8747 8846 8847 8748 8846 8945 8946 8847 8945 9044 9045 8946 9044 9143 9144 9045 9143 9242 9243 9144 9242 9341 9342 9243 9341 9440 9441 9342 9440 9539 9540 9441 9539 9638 9639 9540 9638 9737 9738 9639 9737 9836 9837 9738 9836 9935 9936 9837 9935 10034 10035 9936 10034 10133 10134 10035 10133 10232 10233 10134 10232 10331 10332 10233 10331 10430 10431 10332 10430 10529 10530 10431 10529 10628 10629 10530 10628 10727 10728 10629 10727 10826 10827 10728 10826 10925 10926 10827 10925 11024 11025 10926 11024 11123 11124 11025 11123 11222 11223 11124 11222 11321 11322 11223 11321 11420 11421 11322 11420 11519 11520 11421 11519 11618 11619 11520 11618 11717 11718 11619 11717 11816 11817 11718 11816 11915 11916 11817 11915 12014 12015 11916 12014 12113 12114 12015 12113 12212 12213 12114 12212 12311 12312 12213 12311 12410 12411 12312 12410 12509 12510 12411 12509 12608 12609 12510 12608 12707 12708 12609 12707 12806 12807 12708 12806 12905 12906 12807 12905 13004 13005 12906 13004 13103 13104 13005 13103 13202 13203 13104 13202 13301 13302 13203 13301 13400 13401 13302 13400 13499 13500 13401 13499 13598 13599 13500 13598 13697 13698 13599 13697 13796 13797 13698 13796 13895 13896 13797 13895 13994 13995 13896 13994 14093 14094 13995 14093 14192 14193 14094 14192 14291 14292 14193 14291 14390 14391 14292 14390 14489 14490 14391 14489 14588 14589 14490 14588 14687 14688 14589 14687 14786 14787 14688 14786 14885 14886 14787 14885 14984 14985 14886 14984 15083 15084 14985 15083 419 420 15084 376 1917 1918 375 1917 2016 2017 1918 2016 2115 2116 2017 2115 2214 2215 2116 2214 2313 2314 2215 2313 2412 2413 2314 2412 2511 2512 2413 2511 2610 2611 2512 2610 2709 2710 2611 2709 2808 2809 2710 2808 2907 2908 2809 2907 3006 3007 2908 3006 3105 3106 3007 3105 3204 3205 3106 3204 3303 3304 3205 3303 3402 3403 3304 3402 3501 3502 3403 3501 3600 3601 3502 3600 3699 3700 3601 3699 3798 3799 3700 3798 3897 3898 3799 3897 3996 3997 3898 3996 4095 4096 3997 4095 4194 4195 4096 4194 4293 4294 4195 4293 4392 4393 4294 4392 4491 4492 4393 4491 4590 4591 4492 4590 4689 4690 4591 4689 4788 4789 4690 4788 4887 4888 4789 4887 4986 4987 4888 4986 5085 5086 4987 5085 5184 5185 5086 5184 5283 5284 5185 5283 5382 5383 5284 5382 5481 5482 5383 5481 5580 5581 5482 5580 5679 5680 5581 5679 5778 5779 5680 5778 5877 5878 5779 5877 5976 5977 5878 5976 6075 6076 5977 6075 6174 6175 6076 6174 6273 6274 6175 6273 6372 6373 6274 6372 6471 6472 6373 6471 6570 6571 6472 6570 6669 6670 6571 6669 6768 6769 6670 6768 6867 6868 6769 6867 6966 6967 6868 6966 7065 7066 6967 7065 7164 7165 7066 7164 7263 7264 7165 7263 7362 7363 7264 7362 7461 7462 7363 7461 7560 7561 7462 7560 7659 7660 7561 7659 7758 7759 7660 7758 7857 7858 7759 7857 7956 7957 7858 7956 8055 8056 7957 8055 8154 8155 8056 8154 8253 8254 8155 8253 8352 8353 8254 8352 8451 8452 8353 8451 8550 8551 8452 8550 8649 8650 8551 8649 8748 8749 8650 8748 8847 8848 8749 8847 8946 8947 8848 8946 9045 9046 8947 9045 9144 9145 9046 9144 9243 9244 9145 9243 9342 9343 9244 9342 9441 9442 9343 9441 9540 9541 9442 9540 9639 9640 9541 9639 9738 9739 9640 9738 9837 9838 9739 9837 9936 9937 9838 9936 10035 10036 9937 10035 10134 10135 10036 10134 10233 10234 10135 10233 10332 10333 10234 10332 10431 10432 10333 10431 10530 10531 10432 10530 10629 10630 10531 10629 10728 10729 10630 10728 10827 10828 10729 10827 10926 10927 10828 10926 11025 11026 10927 11025 11124 11125 11026 11124 11223 11224 11125 11223 11322 11323 11224 11322 11421 11422 11323 11421 11520 11521 11422 11520 11619 11620 11521 11619 11718 11719 11620 11718 11817 11818 11719 11817 11916 11917 11818 11916 12015 12016 11917 12015 12114 12115 12016 12114 12213 12214 12115 12213 12312 12313 12214 12312 12411 12412 12313 12411 12510 12511 12412 12510 12609 12610 12511 12609 12708 12709 12610 12708 12807 12808 12709 12807 12906 12907 12808 12906 13005 13006 12907 13005 13104 13105 13006 13104 13203 13204 13105 13203 13302 13303 13204 13302 13401 13402 13303 13401 13500 13501 13402 13500 13599 13600 13501 13599 13698 13699 13600 13698 13797 13798 13699 13797 13896 13897 13798 13896 13995 13996 13897 13995 14094 14095 13996 14094 14193 14194 14095 14193 14292 14293 14194 14292 14391 14392 14293 14391 14490 14491 14392 14490 14589 14590 14491 14589 14688 14689 14590 14688 14787 14788 14689 14787 14886 14887 14788 14886 14985 14986 14887 14985 15084 15085 14986 15084 420 421 15085 375 1918 1919 374 1918 2017 2018 1919 2017 2116 2117 2018 2116 2215 2216 2117 2215 2314 2315 2216 2314 2413 2414 2315 2413 2512 2513 2414 2512 2611 2612 2513 2611 2710 2711 2612 2710 2809 2810 2711 2809 2908 2909 2810 2908 3007 3008 2909 3007 3106 3107 3008 3106 3205 3206 3107 3205 3304 3305 3206 3304 3403 3404 3305 3403 3502 3503 3404 3502 3601 3602 3503 3601 3700 3701 3602 3700 3799 3800 3701 3799 3898 3899 3800 3898 3997 3998 3899 3997 4096 4097 3998 4096 4195 4196 4097 4195 4294 4295 4196 4294 4393 4394 4295 4393 4492 4493 4394 4492 4591 4592 4493 4591 4690 4691 4592 4690 4789 4790 4691 4789 4888 4889 4790 4888 4987 4988 4889 4987 5086 5087 4988 5086 5185 5186 5087 5185 5284 5285 5186 5284 5383 5384 5285 5383 5482 5483 5384 5482 5581 5582 5483 5581 5680 5681 5582 5680 5779 5780 5681 5779 5878 5879 5780 5878 5977 5978 5879 5977 6076 6077 5978 6076 6175 6176 6077 6175 6274 6275 6176 6274 6373 6374 6275 6373 6472 6473 6374 6472 6571 6572 6473 6571 6670 6671 6572 6670 6769 6770 6671 6769 6868 6869 6770 6868 6967 6968 6869 6967 7066 7067 6968 7066 7165 7166 7067 7165 7264 7265 7166 7264 7363 7364 7265 7363 7462 7463 7364 7462 7561 7562 7463 7561 7660 7661 7562 7660 7759 7760 7661 7759 7858 7859 7760 7858 7957 7958 7859 7957 8056 8057 7958 8056 8155 8156 8057 8155 8254 8255 8156 8254 8353 8354 8255 8353 8452 8453 8354 8452 8551 8552 8453 8551 8650 8651 8552 8650 8749 8750 8651 8749 8848 8849 8750 8848 8947 8948 8849 8947 9046 9047 8948 9046 9145 9146 9047 9145 9244 9245 9146 9244 9343 9344 9245 9343 9442 9443 9344 9442 9541 9542 9443 9541 9640 9641 9542 9640 9739 9740 9641 9739 9838 9839 9740 9838 9937 9938 9839 9937 10036 10037 9938 10036 10135 10136 10037 10135 10234 10235 10136 10234 10333 10334 10235 10333 10432 10433 10334 10432 10531 10532 10433 10531 10630 10631 10532 10630 10729 10730 10631 10729 10828 10829 10730 10828 10927 10928 10829 10927 11026 11027 10928 11026 11125 11126 11027 11125 11224 11225 11126 11224 11323 11324 11225 11323 11422 11423 11324 11422 11521 11522 11423 11521 11620 11621 11522 11620 11719 11720 11621 11719 11818 11819 11720 11818 11917 11918 11819 11917 12016 12017 11918 12016 12115 12116 12017 12115 12214 12215 12116 12214 12313 12314 12215 12313 12412 12413 12314 12412 12511 12512 12413 12511 12610 12611 12512 12610 12709 12710 12611 12709 12808 12809 12710 12808 12907 12908 12809 12907 13006 13007 12908 13006 13105 13106 13007 13105 13204 13205 13106 13204 13303 13304 13205 13303 13402 13403 13304 13402 13501 13502 13403 13501 13600 13601 13502 13600 13699 13700 13601 13699 13798 13799 13700 13798 13897 13898 13799 13897 13996 13997 13898 13996 14095 14096 13997 14095 14194 14195 14096 14194 14293 14294 14195 14293 14392 14393 14294 14392 14491 14492 14393 14491 14590 14591 14492 14590 14689 14690 14591 14689 14788 14789 14690 14788 14887 14888 14789 14887 14986 14987 14888 14986 15085 15086 14987 15085 421 422 15086 374 1919 1920 373 1919 2018 2019 1920 2018 2117 2118 2019 2117 2216 2217 2118 2216 2315 2316 2217 2315 2414 2415 2316 2414 2513 2514 2415 2513 2612 2613 2514 2612 2711 2712 2613 2711 2810 2811 2712 2810 2909 2910 2811 2909 3008 3009 2910 3008 3107 3108 3009 3107 3206 3207 3108 3206 3305 3306 3207 3305 3404 3405 3306 3404 3503 3504 3405 3503 3602 3603 3504 3602 3701 3702 3603 3701 3800 3801 3702 3800 3899 3900 3801 3899 3998 3999 3900 3998 4097 4098 3999 4097 4196 4197 4098 4196 4295 4296 4197 4295 4394 4395 4296 4394 4493 4494 4395 4493 4592 4593 4494 4592 4691 4692 4593 4691 4790 4791 4692 4790 4889 4890 4791 4889 4988 4989 4890 4988 5087 5088 4989 5087 5186 5187 5088 5186 5285 5286 5187 5285 5384 5385 5286 5384 5483 5484 5385 5483 5582 5583 5484 5582 5681 5682 5583 5681 5780 5781 5682 5780 5879 5880 5781 5879 5978 5979 5880 5978 6077 6078 5979 6077 6176 6177 6078 6176 6275 6276 6177 6275 6374 6375 6276 6374 6473 6474 6375 6473 6572 6573 6474 6572 6671 6672 6573 6671 6770 6771 6672 6770 6869 6870 6771 6869 6968 6969 6870 6968 7067 7068 6969 7067 7166 7167 7068 7166 7265 7266 7167 7265 7364 7365 7266 7364 7463 7464 7365 7463 7562 7563 7464 7562 7661 7662 7563 7661 7760 7761 7662 7760 7859 7860 7761 7859 7958 7959 7860 7958 8057 8058 7959 8057 8156 8157 8058 8156 8255 8256 8157 8255 8354 8355 8256 8354 8453 8454 8355 8453 8552 8553 8454 8552 8651 8652 8553 8651 8750 8751 8652 8750 8849 8850 8751 8849 8948 8949 8850 8948 9047 9048 8949 9047 9146 9147 9048 9146 9245 9246 9147 9245 9344 9345 9246 9344 9443 9444 9345 9443 9542 9543 9444 9542 9641 9642 9543 9641 9740 9741 9642 9740 9839 9840 9741 9839 9938 9939 9840 9938 10037 10038 9939 10037 10136 10137 10038 10136 10235 10236 10137 10235 10334 10335 10236 10334 10433 10434 10335 10433 10532 10533 10434 10532 10631 10632 10533 10631 10730 10731 10632 10730 10829 10830 10731 10829 10928 10929 10830 10928 11027 11028 10929 11027 11126 11127 11028 11126 11225 11226 11127 11225 11324 11325 11226 11324 11423 11424 11325 11423 11522 11523 11424 11522 11621 11622 11523 11621 11720 11721 11622 11720 11819 11820 11721 11819 11918 11919 11820 11918 12017 12018 11919 12017 12116 12117 12018 12116 12215 12216 12117 12215 12314 12315 12216 12314 12413 12414 12315 12413 12512 12513 12414 12512 12611 12612 12513 12611 12710 12711 12612 12710 12809 12810 12711 12809 12908 12909 12810 12908 13007 13008 12909 13007 13106 13107 13008 13106 13205 13206 13107 13205 13304 13305 13206 13304 13403 13404 13305 13403 13502 13503 13404 13502 13601 13602 13503 13601 13700 13701 13602 13700 13799 13800 13701 13799 13898 13899 13800 13898 13997 13998 13899 13997 14096 14097 13998 14096 14195 14196 14097 14195 14294 14295 14196 14294 14393 14394 14295 14393 14492 14493 14394 14492 14591 14592 14493 14591 14690 14691 14592 14690 14789 14790 14691 14789 14888 14889 14790 14888 14987 14988 14889 14987 15086 15087 14988 15086 422 423 15087 373 1920 1921 372 1920 2019 2020 1921 2019 2118 2119 2020 2118 2217 2218 2119 2217 2316 2317 2218 2316 2415 2416 2317 2415 2514 2515 2416 2514 2613 2614 2515 2613 2712 2713 2614 2712 2811 2812 2713 2811 2910 2911 2812 2910 3009 3010 2911 3009 3108 3109 3010 3108 3207 3208 3109 3207 3306 3307 3208 3306 3405 3406 3307 3405 3504 3505 3406 3504 3603 3604 3505 3603 3702 3703 3604 3702 3801 3802 3703 3801 3900 3901 3802 3900 3999 4000 3901 3999 4098 4099 4000 4098 4197 4198 4099 4197 4296 4297 4198 4296 4395 4396 4297 4395 4494 4495 4396 4494 4593 4594 4495 4593 4692 4693 4594 4692 4791 4792 4693 4791 4890 4891 4792 4890 4989 4990 4891 4989 5088 5089 4990 5088 5187 5188 5089 5187 5286 5287 5188 5286 5385 5386 5287 5385 5484 5485 5386 5484 5583 5584 5485 5583 5682 5683 5584 5682 5781 5782 5683 5781 5880 5881 5782 5880 5979 5980 5881 5979 6078 6079 5980 6078 6177 6178 6079 6177 6276 6277 6178 6276 6375 6376 6277 6375 6474 6475 6376 6474 6573 6574 6475 6573 6672 6673 6574 6672 6771 6772 6673 6771 6870 6871 6772 6870 6969 6970 6871 6969 7068 7069 6970 7068 7167 7168 7069 7167 7266 7267 7168 7266 7365 7366 7267 7365 7464 7465 7366 7464 7563 7564 7465 7563 7662 7663 7564 7662 7761 7762 7663 7761 7860 7861 7762 7860 7959 7960 7861 7959 8058 8059 7960 8058 8157 8158 8059 8157 8256 8257 8158 8256 8355 8356 8257 8355 8454 8455 8356 8454 8553 8554 8455 8553 8652 8653 8554 8652 8751 8752 8653 8751 8850 8851 8752 8850 8949 8950 8851 8949 9048 9049 8950 9048 9147 9148 9049 9147 9246 9247 9148 9246 9345 9346 9247 9345 9444 9445 9346 9444 9543 9544 9445 9543 9642 9643 9544 9642 9741 9742 9643 9741 9840 9841 9742 9840 9939 9940 9841 9939 10038 10039 9940 10038 10137 10138 10039 10137 10236 10237 10138 10236 10335 10336 10237 10335 10434 10435 10336 10434 10533 10534 10435 10533 10632 10633 10534 10632 10731 10732 10633 10731 10830 10831 10732 10830 10929 10930 10831 10929 11028 11029 10930 11028 11127 11128 11029 11127 11226 11227 11128 11226 11325 11326 11227 11325 11424 11425 11326 11424 11523 11524 11425 11523 11622 11623 11524 11622 11721 11722 11623 11721 11820 11821 11722 11820 11919 11920 11821 11919 12018 12019 11920 12018 12117 12118 12019 12117 12216 12217 12118 12216 12315 12316 12217 12315 12414 12415 12316 12414 12513 12514 12415 12513 12612 12613 12514 12612 12711 12712 12613 12711 12810 12811 12712 12810 12909 12910 12811 12909 13008 13009 12910 13008 13107 13108 13009 13107 13206 13207 13108 13206 13305 13306 13207 13305 13404 13405 13306 13404 13503 13504 13405 13503 13602 13603 13504 13602 13701 13702 13603 13701 13800 13801 13702 13800 13899 13900 13801 13899 13998 13999 13900 13998 14097 14098 13999 14097 14196 14197 14098 14196 14295 14296 14197 14295 14394 14395 14296 14394 14493 14494 14395 14493 14592 14593 14494 14592 14691 14692 14593 14691 14790 14791 14692 14790 14889 14890 14791 14889 14988 14989 14890 14988 15087 15088 14989 15087 423 424 15088 372 1921 1922 371 1921 2020 2021 1922 2020 2119 2120 2021 2119 2218 2219 2120 2218 2317 2318 2219 2317 2416 2417 2318 2416 2515 2516 2417 2515 2614 2615 2516 2614 2713 2714 2615 2713 2812 2813 2714 2812 2911 2912 2813 2911 3010 3011 2912 3010 3109 3110 3011 3109 3208 3209 3110 3208 3307 3308 3209 3307 3406 3407 3308 3406 3505 3506 3407 3505 3604 3605 3506 3604 3703 3704 3605 3703 3802 3803 3704 3802 3901 3902 3803 3901 4000 4001 3902 4000 4099 4100 4001 4099 4198 4199 4100 4198 4297 4298 4199 4297 4396 4397 4298 4396 4495 4496 4397 4495 4594 4595 4496 4594 4693 4694 4595 4693 4792 4793 4694 4792 4891 4892 4793 4891 4990 4991 4892 4990 5089 5090 4991 5089 5188 5189 5090 5188 5287 5288 5189 5287 5386 5387 5288 5386 5485 5486 5387 5485 5584 5585 5486 5584 5683 5684 5585 5683 5782 5783 5684 5782 5881 5882 5783 5881 5980 5981 5882 5980 6079 6080 5981 6079 6178 6179 6080 6178 6277 6278 6179 6277 6376 6377 6278 6376 6475 6476 6377 6475 6574 6575 6476 6574 6673 6674 6575 6673 6772 6773 6674 6772 6871 6872 6773 6871 6970 6971 6872 6970 7069 7070 6971 7069 7168 7169 7070 7168 7267 7268 7169 7267 7366 7367 7268 7366 7465 7466 7367 7465 7564 7565 7466 7564 7663 7664 7565 7663 7762 7763 7664 7762 7861 7862 7763 7861 7960 7961 7862 7960 8059 8060 7961 8059 8158 8159 8060 8158 8257 8258 8159 8257 8356 8357 8258 8356 8455 8456 8357 8455 8554 8555 8456 8554 8653 8654 8555 8653 8752 8753 8654 8752 8851 8852 8753 8851 8950 8951 8852 8950 9049 9050 8951 9049 9148 9149 9050 9148 9247 9248 9149 9247 9346 9347 9248 9346 9445 9446 9347 9445 9544 9545 9446 9544 9643 9644 9545 9643 9742 9743 9644 9742 9841 9842 9743 9841 9940 9941 9842 9940 10039 10040 9941 10039 10138 10139 10040 10138 10237 10238 10139 10237 10336 10337 10238 10336 10435 10436 10337 10435 10534 10535 10436 10534 10633 10634 10535 10633 10732 10733 10634 10732 10831 10832 10733 10831 10930 10931 10832 10930 11029 11030 10931 11029 11128 11129 11030 11128 11227 11228 11129 11227 11326 11327 11228 11326 11425 11426 11327 11425 11524 11525 11426 11524 11623 11624 11525 11623 11722 11723 11624 11722 11821 11822 11723 11821 11920 11921 11822 11920 12019 12020 11921 12019 12118 12119 12020 12118 12217 12218 12119 12217 12316 12317 12218 12316 12415 12416 12317 12415 12514 12515 12416 12514 12613 12614 12515 12613 12712 12713 12614 12712 12811 12812 12713 12811 12910 12911 12812 12910 13009 13010 12911 13009 13108 13109 13010 13108 13207 13208 13109 13207 13306 13307 13208 13306 13405 13406 13307 13405 13504 13505 13406 13504 13603 13604 13505 13603 13702 13703 13604 13702 13801 13802 13703 13801 13900 13901 13802 13900 13999 14000 13901 13999 14098 14099 14000 14098 14197 14198 14099 14197 14296 14297 14198 14296 14395 14396 14297 14395 14494 14495 14396 14494 14593 14594 14495 14593 14692 14693 14594 14692 14791 14792 14693 14791 14890 14891 14792 14890 14989 14990 14891 14989 15088 15089 14990 15088 424 425 15089 371 1922 1923 370 1922 2021 2022 1923 2021 2120 2121 2022 2120 2219 2220 2121 2219 2318 2319 2220 2318 2417 2418 2319 2417 2516 2517 2418 2516 2615 2616 2517 2615 2714 2715 2616 2714 2813 2814 2715 2813 2912 2913 2814 2912 3011 3012 2913 3011 3110 3111 3012 3110 3209 3210 3111 3209 3308 3309 3210 3308 3407 3408 3309 3407 3506 3507 3408 3506 3605 3606 3507 3605 3704 3705 3606 3704 3803 3804 3705 3803 3902 3903 3804 3902 4001 4002 3903 4001 4100 4101 4002 4100 4199 4200 4101 4199 4298 4299 4200 4298 4397 4398 4299 4397 4496 4497 4398 4496 4595 4596 4497 4595 4694 4695 4596 4694 4793 4794 4695 4793 4892 4893 4794 4892 4991 4992 4893 4991 5090 5091 4992 5090 5189 5190 5091 5189 5288 5289 5190 5288 5387 5388 5289 5387 5486 5487 5388 5486 5585 5586 5487 5585 5684 5685 5586 5684 5783 5784 5685 5783 5882 5883 5784 5882 5981 5982 5883 5981 6080 6081 5982 6080 6179 6180 6081 6179 6278 6279 6180 6278 6377 6378 6279 6377 6476 6477 6378 6476 6575 6576 6477 6575 6674 6675 6576 6674 6773 6774 6675 6773 6872 6873 6774 6872 6971 6972 6873 6971 7070 7071 6972 7070 7169 7170 7071 7169 7268 7269 7170 7268 7367 7368 7269 7367 7466 7467 7368 7466 7565 7566 7467 7565 7664 7665 7566 7664 7763 7764 7665 7763 7862 7863 7764 7862 7961 7962 7863 7961 8060 8061 7962 8060 8159 8160 8061 8159 8258 8259 8160 8258 8357 8358 8259 8357 8456 8457 8358 8456 8555 8556 8457 8555 8654 8655 8556 8654 8753 8754 8655 8753 8852 8853 8754 8852 8951 8952 8853 8951 9050 9051 8952 9050 9149 9150 9051 9149 9248 9249 9150 9248 9347 9348 9249 9347 9446 9447 9348 9446 9545 9546 9447 9545 9644 9645 9546 9644 9743 9744 9645 9743 9842 9843 9744 9842 9941 9942 9843 9941 10040 10041 9942 10040 10139 10140 10041 10139 10238 10239 10140 10238 10337 10338 10239 10337 10436 10437 10338 10436 10535 10536 10437 10535 10634 10635 10536 10634 10733 10734 10635 10733 10832 10833 10734 10832 10931 10932 10833 10931 11030 11031 10932 11030 11129 11130 11031 11129 11228 11229 11130 11228 11327 11328 11229 11327 11426 11427 11328 11426 11525 11526 11427 11525 11624 11625 11526 11624 11723 11724 11625 11723 11822 11823 11724 11822 11921 11922 11823 11921 12020 12021 11922 12020 12119 12120 12021 12119 12218 12219 12120 12218 12317 12318 12219 12317 12416 12417 12318 12416 12515 12516 12417 12515 12614 12615 12516 12614 12713 12714 12615 12713 12812 12813 12714 12812 12911 12912 12813 12911 13010 13011 12912 13010 13109 13110 13011 13109 13208 13209 13110 13208 13307 13308 13209 13307 13406 13407 13308 13406 13505 13506 13407 13505 13604 13605 13506 13604 13703 13704 13605 13703 13802 13803 13704 13802 13901 13902 13803 13901 14000 14001 13902 14000 14099 14100 14001 14099 14198 14199 14100 14198 14297 14298 14199 14297 14396 14397 14298 14396 14495 14496 14397 14495 14594 14595 14496 14594 14693 14694 14595 14693 14792 14793 14694 14792 14891 14892 14793 14891 14990 14991 14892 14990 15089 15090 14991 15089 425 426 15090 370 1923 1924 2 1923 2022 2023 1924 2022 2121 2122 2023 2121 2220 2221 2122 2220 2319 2320 2221 2319 2418 2419 2320 2418 2517 2518 2419 2517 2616 2617 2518 2616 2715 2716 2617 2715 2814 2815 2716 2814 2913 2914 2815 2913 3012 3013 2914 3012 3111 3112 3013 3111 3210 3211 3112 3210 3309 3310 3211 3309 3408 3409 3310 3408 3507 3508 3409 3507 3606 3607 3508 3606 3705 3706 3607 3705 3804 3805 3706 3804 3903 3904 3805 3903 4002 4003 3904 4002 4101 4102 4003 4101 4200 4201 4102 4200 4299 4300 4201 4299 4398 4399 4300 4398 4497 4498 4399 4497 4596 4597 4498 4596 4695 4696 4597 4695 4794 4795 4696 4794 4893 4894 4795 4893 4992 4993 4894 4992 5091 5092 4993 5091 5190 5191 5092 5190 5289 5290 5191 5289 5388 5389 5290 5388 5487 5488 5389 5487 5586 5587 5488 5586 5685 5686 5587 5685 5784 5785 5686 5784 5883 5884 5785 5883 5982 5983 5884 5982 6081 6082 5983 6081 6180 6181 6082 6180 6279 6280 6181 6279 6378 6379 6280 6378 6477 6478 6379 6477 6576 6577 6478 6576 6675 6676 6577 6675 6774 6775 6676 6774 6873 6874 6775 6873 6972 6973 6874 6972 7071 7072 6973 7071 7170 7171 7072 7170 7269 7270 7171 7269 7368 7369 7270 7368 7467 7468 7369 7467 7566 7567 7468 7566 7665 7666 7567 7665 7764 7765 7666 7764 7863 7864 7765 7863 7962 7963 7864 7962 8061 8062 7963 8061 8160 8161 8062 8160 8259 8260 8161 8259 8358 8359 8260 8358 8457 8458 8359 8457 8556 8557 8458 8556 8655 8656 8557 8655 8754 8755 8656 8754 8853 8854 8755 8853 8952 8953 8854 8952 9051 9052 8953 9051 9150 9151 9052 9150 9249 9250 9151 9249 9348 9349 9250 9348 9447 9448 9349 9447 9546 9547 9448 9546 9645 9646 9547 9645 9744 9745 9646 9744 9843 9844 9745 9843 9942 9943 9844 9942 10041 10042 9943 10041 10140 10141 10042 10140 10239 10240 10141 10239 10338 10339 10240 10338 10437 10438 10339 10437 10536 10537 10438 10536 10635 10636 10537 10635 10734 10735 10636 10734 10833 10834 10735 10833 10932 10933 10834 10932 11031 11032 10933 11031 11130 11131 11032 11130 11229 11230 11131 11229 11328 11329 11230 11328 11427 11428 11329 11427 11526 11527 11428 11526 11625 11626 11527 11625 11724 11725 11626 11724 11823 11824 11725 11823 11922 11923 11824 11922 12021 12022 11923 12021 12120 12121 12022 12120 12219 12220 12121 12219 12318 12319 12220 12318 12417 12418 12319 12417 12516 12517 12418 12516 12615 12616 12517 12615 12714 12715 12616 12714 12813 12814 12715 12813 12912 12913 12814 12912 13011 13012 12913 13011 13110 13111 13012 13110 13209 13210 13111 13209 13308 13309 13210 13308 13407 13408 13309 13407 13506 13507 13408 13506 13605 13606 13507 13605 13704 13705 13606 13704 13803 13804 13705 13803 13902 13903 13804 13902 14001 14002 13903 14001 14100 14101 14002 14100 14199 14200 14101 14199 14298 14299 14200 14298 14397 14398 14299 14397 14496 14497 14398 14496 14595 14596 14497 14595 14694 14695 14596 14694 14793 14794 14695 14793 14892 14893 14794 14892 14991 14992 14893 14991 15090 15091 14992 15090 426 6 15091 2 1924 1925 635 1924 2023 2024 1925 2023 2122 2123 2024 2122 2221 2222 2123 2221 2320 2321 2222 2320 2419 2420 2321 2419 2518 2519 2420 2518 2617 2618 2519 2617 2716 2717 2618 2716 2815 2816 2717 2815 2914 2915 2816 2914 3013 3014 2915 3013 3112 3113 3014 3112 3211 3212 3113 3211 3310 3311 3212 3310 3409 3410 3311 3409 3508 3509 3410 3508 3607 3608 3509 3607 3706 3707 3608 3706 3805 3806 3707 3805 3904 3905 3806 3904 4003 4004 3905 4003 4102 4103 4004 4102 4201 4202 4103 4201 4300 4301 4202 4300 4399 4400 4301 4399 4498 4499 4400 4498 4597 4598 4499 4597 4696 4697 4598 4696 4795 4796 4697 4795 4894 4895 4796 4894 4993 4994 4895 4993 5092 5093 4994 5092 5191 5192 5093 5191 5290 5291 5192 5290 5389 5390 5291 5389 5488 5489 5390 5488 5587 5588 5489 5587 5686 5687 5588 5686 5785 5786 5687 5785 5884 5885 5786 5884 5983 5984 5885 5983 6082 6083 5984 6082 6181 6182 6083 6181 6280 6281 6182 6280 6379 6380 6281 6379 6478 6479 6380 6478 6577 6578 6479 6577 6676 6677 6578 6676 6775 6776 6677 6775 6874 6875 6776 6874 6973 6974 6875 6973 7072 7073 6974 7072 7171 7172 7073 7171 7270 7271 7172 7270 7369 7370 7271 7369 7468 7469 7370 7468 7567 7568 7469 7567 7666 7667 7568 7666 7765 7766 7667 7765 7864 7865 7766 7864 7963 7964 7865 7963 8062 8063 7964 8062 8161 8162 8063 8161 8260 8261 8162 8260 8359 8360 8261 8359 8458 8459 8360 8458 8557 8558 8459 8557 8656 8657 8558 8656 8755 8756 8657 8755 8854 8855 8756 8854 8953 8954 8855 8953 9052 9053 8954 9052 9151 9152 9053 9151 9250 9251 9152 9250 9349 9350 9251 9349 9448 9449 9350 9448 9547 9548 9449 9547 9646 9647 9548 9646 9745 9746 9647 9745 9844 9845 9746 9844 9943 9944 9845 9943 10042 10043 9944 10042 10141 10142 10043 10141 10240 10241 10142 10240 10339 10340 10241 10339 10438 10439 10340 10438 10537 10538 10439 10537 10636 10637 10538 10636 10735 10736 10637 10735 10834 10835 10736 10834 10933 10934 10835 10933 11032 11033 10934 11032 11131 11132 11033 11131 11230 11231 11132 11230 11329 11330 11231 11329 11428 11429 11330 11428 11527 11528 11429 11527 11626 11627 11528 11626 11725 11726 11627 11725 11824 11825 11726 11824 11923 11924 11825 11923 12022 12023 11924 12022 12121 12122 12023 12121 12220 12221 12122 12220 12319 12320 12221 12319 12418 12419 12320 12418 12517 12518 12419 12517 12616 12617 12518 12616 12715 12716 12617 12715 12814 12815 12716 12814 12913 12914 12815 12913 13012 13013 12914 13012 13111 13112 13013 13111 13210 13211 13112 13210 13309 13310 13211 13309 13408 13409 13310 13408 13507 13508 13409 13507 13606 13607 13508 13606 13705 13706 13607 13705 13804 13805 13706 13804 13903 13904 13805 13903 14002 14003 13904 14002 14101 14102 14003 14101 14200 14201 14102 14200 14299 14300 14201 14299 14398 14399 14300 14398 14497 14498 14399 14497 14596 14597 14498 14596 14695 14696 14597 14695 14794 14795 14696 14794 14893 14894 14795 14893 14992 14993 14894 14992 15091 15092 14993 15091 6 643 15092 635 1925 1926 636 1925 2024 2025 1926 2024 2123 2124 2025 2123 2222 2223 2124 2222 2321 2322 2223 2321 2420 2421 2322 2420 2519 2520 2421 2519 2618 2619 2520 2618 2717 2718 2619 2717 2816 2817 2718 2816 2915 2916 2817 2915 3014 3015 2916 3014 3113 3114 3015 3113 3212 3213 3114 3212 3311 3312 3213 3311 3410 3411 3312 3410 3509 3510 3411 3509 3608 3609 3510 3608 3707 3708 3609 3707 3806 3807 3708 3806 3905 3906 3807 3905 4004 4005 3906 4004 4103 4104 4005 4103 4202 4203 4104 4202 4301 4302 4203 4301 4400 4401 4302 4400 4499 4500 4401 4499 4598 4599 4500 4598 4697 4698 4599 4697 4796 4797 4698 4796 4895 4896 4797 4895 4994 4995 4896 4994 5093 5094 4995 5093 5192 5193 5094 5192 5291 5292 5193 5291 5390 5391 5292 5390 5489 5490 5391 5489 5588 5589 5490 5588 5687 5688 5589 5687 5786 5787 5688 5786 5885 5886 5787 5885 5984 5985 5886 5984 6083 6084 5985 6083 6182 6183 6084 6182 6281 6282 6183 6281 6380 6381 6282 6380 6479 6480 6381 6479 6578 6579 6480 6578 6677 6678 6579 6677 6776 6777 6678 6776 6875 6876 6777 6875 6974 6975 6876 6974 7073 7074 6975 7073 7172 7173 7074 7172 7271 7272 7173 7271 7370 7371 7272 7370 7469 7470 7371 7469 7568 7569 7470 7568 7667 7668 7569 7667 7766 7767 7668 7766 7865 7866 7767 7865 7964 7965 7866 7964 8063 8064 7965 8063 8162 8163 8064 8162 8261 8262 8163 8261 8360 8361 8262 8360 8459 8460 8361 8459 8558 8559 8460 8558 8657 8658 8559 8657 8756 8757 8658 8756 8855 8856 8757 8855 8954 8955 8856 8954 9053 9054 8955 9053 9152 9153 9054 9152 9251 9252 9153 9251 9350 9351 9252 9350 9449 9450 9351 9449 9548 9549 9450 9548 9647 9648 9549 9647 9746 9747 9648 9746 9845 9846 9747 9845 9944 9945 9846 9944 10043 10044 9945 10043 10142 10143 10044 10142 10241 10242 10143 10241 10340 10341 10242 10340 10439 10440 10341 10439 10538 10539 10440 10538 10637 10638 10539 10637 10736 10737 10638 10736 10835 10836 10737 10835 10934 10935 10836 10934 11033 11034 10935 11033 11132 11133 11034 11132 11231 11232 11133 11231 11330 11331 11232 11330 11429 11430 11331 11429 11528 11529 11430 11528 11627 11628 11529 11627 11726 11727 11628 11726 11825 11826 11727 11825 11924 11925 11826 11924 12023 12024 11925 12023 12122 12123 12024 12122 12221 12222 12123 12221 12320 12321 12222 12320 12419 12420 12321 12419 12518 12519 12420 12518 12617 12618 12519 12617 12716 12717 12618 12716 12815 12816 12717 12815 12914 12915 12816 12914 13013 13014 12915 13013 13112 13113 13014 13112 13211 13212 13113 13211 13310 13311 13212 13310 13409 13410 13311 13409 13508 13509 13410 13508 13607 13608 13509 13607 13706 13707 13608 13706 13805 13806 13707 13805 13904 13905 13806 13904 14003 14004 13905 14003 14102 14103 14004 14102 14201 14202 14103 14201 14300 14301 14202 14300 14399 14400 14301 14399 14498 14499 14400 14498 14597 14598 14499 14597 14696 14697 14598 14696 14795 14796 14697 14795 14894 14895 14796 14894 14993 14994 14895 14993 15092 15093 14994 15092 643 644 15093 636 1926 1927 637 1926 2025 2026 1927 2025 2124 2125 2026 2124 2223 2224 2125 2223 2322 2323 2224 2322 2421 2422 2323 2421 2520 2521 2422 2520 2619 2620 2521 2619 2718 2719 2620 2718 2817 2818 2719 2817 2916 2917 2818 2916 3015 3016 2917 3015 3114 3115 3016 3114 3213 3214 3115 3213 3312 3313 3214 3312 3411 3412 3313 3411 3510 3511 3412 3510 3609 3610 3511 3609 3708 3709 3610 3708 3807 3808 3709 3807 3906 3907 3808 3906 4005 4006 3907 4005 4104 4105 4006 4104 4203 4204 4105 4203 4302 4303 4204 4302 4401 4402 4303 4401 4500 4501 4402 4500 4599 4600 4501 4599 4698 4699 4600 4698 4797 4798 4699 4797 4896 4897 4798 4896 4995 4996 4897 4995 5094 5095 4996 5094 5193 5194 5095 5193 5292 5293 5194 5292 5391 5392 5293 5391 5490 5491 5392 5490 5589 5590 5491 5589 5688 5689 5590 5688 5787 5788 5689 5787 5886 5887 5788 5886 5985 5986 5887 5985 6084 6085 5986 6084 6183 6184 6085 6183 6282 6283 6184 6282 6381 6382 6283 6381 6480 6481 6382 6480 6579 6580 6481 6579 6678 6679 6580 6678 6777 6778 6679 6777 6876 6877 6778 6876 6975 6976 6877 6975 7074 7075 6976 7074 7173 7174 7075 7173 7272 7273 7174 7272 7371 7372 7273 7371 7470 7471 7372 7470 7569 7570 7471 7569 7668 7669 7570 7668 7767 7768 7669 7767 7866 7867 7768 7866 7965 7966 7867 7965 8064 8065 7966 8064 8163 8164 8065 8163 8262 8263 8164 8262 8361 8362 8263 8361 8460 8461 8362 8460 8559 8560 8461 8559 8658 8659 8560 8658 8757 8758 8659 8757 8856 8857 8758 8856 8955 8956 8857 8955 9054 9055 8956 9054 9153 9154 9055 9153 9252 9253 9154 9252 9351 9352 9253 9351 9450 9451 9352 9450 9549 9550 9451 9549 9648 9649 9550 9648 9747 9748 9649 9747 9846 9847 9748 9846 9945 9946 9847 9945 10044 10045 9946 10044 10143 10144 10045 10143 10242 10243 10144 10242 10341 10342 10243 10341 10440 10441 10342 10440 10539 10540 10441 10539 10638 10639 10540 10638 10737 10738 10639 10737 10836 10837 10738 10836 10935 10936 10837 10935 11034 11035 10936 11034 11133 11134 11035 11133 11232 11233 11134 11232 11331 11332 11233 11331 11430 11431 11332 11430 11529 11530 11431 11529 11628 11629 11530 11628 11727 11728 11629 11727 11826 11827 11728 11826 11925 11926 11827 11925 12024 12025 11926 12024 12123 12124 12025 12123 12222 12223 12124 12222 12321 12322 12223 12321 12420 12421 12322 12420 12519 12520 12421 12519 12618 12619 12520 12618 12717 12718 12619 12717 12816 12817 12718 12816 12915 12916 12817 12915 13014 13015 12916 13014 13113 13114 13015 13113 13212 13213 13114 13212 13311 13312 13213 13311 13410 13411 13312 13410 13509 13510 13411 13509 13608 13609 13510 13608 13707 13708 13609 13707 13806 13807 13708 13806 13905 13906 13807 13905 14004 14005 13906 14004 14103 14104 14005 14103 14202 14203 14104 14202 14301 14302 14203 14301 14400 14401 14302 14400 14499 14500 14401 14499 14598 14599 14500 14598 14697 14698 14599 14697 14796 14797 14698 14796 14895 14896 14797 14895 14994 14995 14896 14994 15093 15094 14995 15093 644 645 15094 637 1927 1928 638 1927 2026 2027 1928 2026 2125 2126 2027 2125 2224 2225 2126 2224 2323 2324 2225 2323 2422 2423 2324 2422 2521 2522 2423 2521 2620 2621 2522 2620 2719 2720 2621 2719 2818 2819 2720 2818 2917 2918 2819 2917 3016 3017 2918 3016 3115 3116 3017 3115 3214 3215 3116 3214 3313 3314 3215 3313 3412 3413 3314 3412 3511 3512 3413 3511 3610 3611 3512 3610 3709 3710 3611 3709 3808 3809 3710 3808 3907 3908 3809 3907 4006 4007 3908 4006 4105 4106 4007 4105 4204 4205 4106 4204 4303 4304 4205 4303 4402 4403 4304 4402 4501 4502 4403 4501 4600 4601 4502 4600 4699 4700 4601 4699 4798 4799 4700 4798 4897 4898 4799 4897 4996 4997 4898 4996 5095 5096 4997 5095 5194 5195 5096 5194 5293 5294 5195 5293 5392 5393 5294 5392 5491 5492 5393 5491 5590 5591 5492 5590 5689 5690 5591 5689 5788 5789 5690 5788 5887 5888 5789 5887 5986 5987 5888 5986 6085 6086 5987 6085 6184 6185 6086 6184 6283 6284 6185 6283 6382 6383 6284 6382 6481 6482 6383 6481 6580 6581 6482 6580 6679 6680 6581 6679 6778 6779 6680 6778 6877 6878 6779 6877 6976 6977 6878 6976 7075 7076 6977 7075 7174 7175 7076 7174 7273 7274 7175 7273 7372 7373 7274 7372 7471 7472 7373 7471 7570 7571 7472 7570 7669 7670 7571 7669 7768 7769 7670 7768 7867 7868 7769 7867 7966 7967 7868 7966 8065 8066 7967 8065 8164 8165 8066 8164 8263 8264 8165 8263 8362 8363 8264 8362 8461 8462 8363 8461 8560 8561 8462 8560 8659 8660 8561 8659 8758 8759 8660 8758 8857 8858 8759 8857 8956 8957 8858 8956 9055 9056 8957 9055 9154 9155 9056 9154 9253 9254 9155 9253 9352 9353 9254 9352 9451 9452 9353 9451 9550 9551 9452 9550 9649 9650 9551 9649 9748 9749 9650 9748 9847 9848 9749 9847 9946 9947 9848 9946 10045 10046 9947 10045 10144 10145 10046 10144 10243 10244 10145 10243 10342 10343 10244 10342 10441 10442 10343 10441 10540 10541 10442 10540 10639 10640 10541 10639 10738 10739 10640 10738 10837 10838 10739 10837 10936 10937 10838 10936 11035 11036 10937 11035 11134 11135 11036 11134 11233 11234 11135 11233 11332 11333 11234 11332 11431 11432 11333 11431 11530 11531 11432 11530 11629 11630 11531 11629 11728 11729 11630 11728 11827 11828 11729 11827 11926 11927 11828 11926 12025 12026 11927 12025 12124 12125 12026 12124 12223 12224 12125 12223 12322 12323 12224 12322 12421 12422 12323 12421 12520 12521 12422 12520 12619 12620 12521 12619 12718 12719 12620 12718 12817 12818 12719 12817 12916 12917 12818 12916 13015 13016 12917 13015 13114 13115 13016 13114 13213 13214 13115 13213 13312 13313 13214 13312 13411 13412 13313 13411 13510 13511 13412 13510 13609 13610 13511 13609 13708 13709 13610 13708 13807 13808 13709 13807 13906 13907 13808 13906 14005 14006 13907 14005 14104 14105 14006 14104 14203 14204 14105 14203 14302 14303 14204 14302 14401 14402 14303 14401 14500 14501 14402 14500 14599 14600 14501 14599 14698 14699 14600 14698 14797 14798 14699 14797 14896 14897 14798 14896 14995 14996 14897 14995 15094 15095 14996 15094 645 646 15095 638 1928 1929 3 1928 2027 2028 1929 2027 2126 2127 2028 2126 2225 2226 2127 2225 2324 2325 2226 2324 2423 2424 2325 2423 2522 2523 2424 2522 2621 2622 2523 2621 2720 2721 2622 2720 2819 2820 2721 2819 2918 2919 2820 2918 3017 3018 2919 3017 3116 3117 3018 3116 3215 3216 3117 3215 3314 3315 3216 3314 3413 3414 3315 3413 3512 3513 3414 3512 3611 3612 3513 3611 3710 3711 3612 3710 3809 3810 3711 3809 3908 3909 3810 3908 4007 4008 3909 4007 4106 4107 4008 4106 4205 4206 4107 4205 4304 4305 4206 4304 4403 4404 4305 4403 4502 4503 4404 4502 4601 4602 4503 4601 4700 4701 4602 4700 4799 4800 4701 4799 4898 4899 4800 4898 4997 4998 4899 4997 5096 5097 4998 5096 5195 5196 5097 5195 5294 5295 5196 5294 5393 5394 5295 5393 5492 5493 5394 5492 5591 5592 5493 5591 5690 5691 5592 5690 5789 5790 5691 5789 5888 5889 5790 5888 5987 5988 5889 5987 6086 6087 5988 6086 6185 6186 6087 6185 6284 6285 6186 6284 6383 6384 6285 6383 6482 6483 6384 6482 6581 6582 6483 6581 6680 6681 6582 6680 6779 6780 6681 6779 6878 6879 6780 6878 6977 6978 6879 6977 7076 7077 6978 7076 7175 7176 7077 7175 7274 7275 7176 7274 7373 7374 7275 7373 7472 7473 7374 7472 7571 7572 7473 7571 7670 7671 7572 7670 7769 7770 7671 7769 7868 7869 7770 7868 7967 7968 7869 7967 8066 8067 7968 8066 8165 8166 8067 8165 8264 8265 8166 8264 8363 8364 8265 8363 8462 8463 8364 8462 8561 8562 8463 8561 8660 8661 8562 8660 8759 8760 8661 8759 8858 8859 8760 8858 8957 8958 8859 8957 9056 9057 8958 9056 9155 9156 9057 9155 9254 9255 9156 9254 9353 9354 9255 9353 9452 9453 9354 9452 9551 9552 9453 9551 9650 9651 9552 9650 9749 9750 9651 9749 9848 9849 9750 9848 9947 9948 9849 9947 10046 10047 9948 10046 10145 10146 10047 10145 10244 10245 10146 10244 10343 10344 10245 10343 10442 10443 10344 10442 10541 10542 10443 10541 10640 10641 10542 10640 10739 10740 10641 10739 10838 10839 10740 10838 10937 10938 10839 10937 11036 11037 10938 11036 11135 11136 11037 11135 11234 11235 11136 11234 11333 11334 11235 11333 11432 11433 11334 11432 11531 11532 11433 11531 11630 11631 11532 11630 11729 11730 11631 11729 11828 11829 11730 11828 11927 11928 11829 11927 12026 12027 11928 12026 12125 12126 12027 12125 12224 12225 12126 12224 12323 12324 12225 12323 12422 12423 12324 12422 12521 12522 12423 12521 12620 12621 12522 12620 12719 12720 12621 12719 12818 12819 12720 12818 12917 12918 12819 12917 13016 13017 12918 13016 13115 13116 13017 13115 13214 13215 13116 13214 13313 13314 13215 13313 13412 13413 13314 13412 13511 13512 13413 13511 13610 13611 13512 13610 13709 13710 13611 13709 13808 13809 13710 13808 13907 13908 13809 13907 14006 14007 13908 14006 14105 14106 14007 14105 14204 14205 14106 14204 14303 14304 14205 14303 14402 14403 14304 14402 14501 14502 14403 14501 14600 14601 14502 14600 14699 14700 14601 14699 14798 14799 14700 14798 14897 14898 14799 14897 14996 14997 14898 14996 15095 15096 14997 15095 646 7 15096 3 1929 1930 596 1929 2028 2029 1930 2028 2127 2128 2029 2127 2226 2227 2128 2226 2325 2326 2227 2325 2424 2425 2326 2424 2523 2524 2425 2523 2622 2623 2524 2622 2721 2722 2623 2721 2820 2821 2722 2820 2919 2920 2821 2919 3018 3019 2920 3018 3117 3118 3019 3117 3216 3217 3118 3216 3315 3316 3217 3315 3414 3415 3316 3414 3513 3514 3415 3513 3612 3613 3514 3612 3711 3712 3613 3711 3810 3811 3712 3810 3909 3910 3811 3909 4008 4009 3910 4008 4107 4108 4009 4107 4206 4207 4108 4206 4305 4306 4207 4305 4404 4405 4306 4404 4503 4504 4405 4503 4602 4603 4504 4602 4701 4702 4603 4701 4800 4801 4702 4800 4899 4900 4801 4899 4998 4999 4900 4998 5097 5098 4999 5097 5196 5197 5098 5196 5295 5296 5197 5295 5394 5395 5296 5394 5493 5494 5395 5493 5592 5593 5494 5592 5691 5692 5593 5691 5790 5791 5692 5790 5889 5890 5791 5889 5988 5989 5890 5988 6087 6088 5989 6087 6186 6187 6088 6186 6285 6286 6187 6285 6384 6385 6286 6384 6483 6484 6385 6483 6582 6583 6484 6582 6681 6682 6583 6681 6780 6781 6682 6780 6879 6880 6781 6879 6978 6979 6880 6978 7077 7078 6979 7077 7176 7177 7078 7176 7275 7276 7177 7275 7374 7375 7276 7374 7473 7474 7375 7473 7572 7573 7474 7572 7671 7672 7573 7671 7770 7771 7672 7770 7869 7870 7771 7869 7968 7969 7870 7968 8067 8068 7969 8067 8166 8167 8068 8166 8265 8266 8167 8265 8364 8365 8266 8364 8463 8464 8365 8463 8562 8563 8464 8562 8661 8662 8563 8661 8760 8761 8662 8760 8859 8860 8761 8859 8958 8959 8860 8958 9057 9058 8959 9057 9156 9157 9058 9156 9255 9256 9157 9255 9354 9355 9256 9354 9453 9454 9355 9453 9552 9553 9454 9552 9651 9652 9553 9651 9750 9751 9652 9750 9849 9850 9751 9849 9948 9949 9850 9948 10047 10048 9949 10047 10146 10147 10048 10146 10245 10246 10147 10245 10344 10345 10246 10344 10443 10444 10345 10443 10542 10543 10444 10542 10641 10642 10543 10641 10740 10741 10642 10740 10839 10840 10741 10839 10938 10939 10840 10938 11037 11038 10939 11037 11136 11137 11038 11136 11235 11236 11137 11235 11334 11335 11236 11334 11433 11434 11335 11433 11532 11533 11434 11532 11631 11632 11533 11631 11730 11731 11632 11730 11829 11830 11731 11829 11928 11929 11830 11928 12027 12028 11929 12027 12126 12127 12028 12126 12225 12226 12127 12225 12324 12325 12226 12324 12423 12424 12325 12423 12522 12523 12424 12522 12621 12622 12523 12621 12720 12721 12622 12720 12819 12820 12721 12819 12918 12919 12820 12918 13017 13018 12919 13017 13116 13117 13018 13116 13215 13216 13117 13215 13314 13315 13216 13314 13413 13414 13315 13413 13512 13513 13414 13512 13611 13612 13513 13611 13710 13711 13612 13710 13809 13810 13711 13809 13908 13909 13810 13908 14007 14008 13909 14007 14106 14107 14008 14106 14205 14206 14107 14205 14304 14305 14206 14304 14403 14404 14305 14403 14502 14503 14404 14502 14601 14602 14503 14601 14700 14701 14602 14700 14799 14800 14701 14799 14898 14899 14800 14898 14997 14998 14899 14997 15096 15097 14998 15096 7 597 15097 596 1930 1931 595 1930 2029 2030 1931 2029 2128 2129 2030 2128 2227 2228 2129 2227 2326 2327 2228 2326 2425 2426 2327 2425 2524 2525 2426 2524 2623 2624 2525 2623 2722 2723 2624 2722 2821 2822 2723 2821 2920 2921 2822 2920 3019 3020 2921 3019 3118 3119 3020 3118 3217 3218 3119 3217 3316 3317 3218 3316 3415 3416 3317 3415 3514 3515 3416 3514 3613 3614 3515 3613 3712 3713 3614 3712 3811 3812 3713 3811 3910 3911 3812 3910 4009 4010 3911 4009 4108 4109 4010 4108 4207 4208 4109 4207 4306 4307 4208 4306 4405 4406 4307 4405 4504 4505 4406 4504 4603 4604 4505 4603 4702 4703 4604 4702 4801 4802 4703 4801 4900 4901 4802 4900 4999 5000 4901 4999 5098 5099 5000 5098 5197 5198 5099 5197 5296 5297 5198 5296 5395 5396 5297 5395 5494 5495 5396 5494 5593 5594 5495 5593 5692 5693 5594 5692 5791 5792 5693 5791 5890 5891 5792 5890 5989 5990 5891 5989 6088 6089 5990 6088 6187 6188 6089 6187 6286 6287 6188 6286 6385 6386 6287 6385 6484 6485 6386 6484 6583 6584 6485 6583 6682 6683 6584 6682 6781 6782 6683 6781 6880 6881 6782 6880 6979 6980 6881 6979 7078 7079 6980 7078 7177 7178 7079 7177 7276 7277 7178 7276 7375 7376 7277 7375 7474 7475 7376 7474 7573 7574 7475 7573 7672 7673 7574 7672 7771 7772 7673 7771 7870 7871 7772 7870 7969 7970 7871 7969 8068 8069 7970 8068 8167 8168 8069 8167 8266 8267 8168 8266 8365 8366 8267 8365 8464 8465 8366 8464 8563 8564 8465 8563 8662 8663 8564 8662 8761 8762 8663 8761 8860 8861 8762 8860 8959 8960 8861 8959 9058 9059 8960 9058 9157 9158 9059 9157 9256 9257 9158 9256 9355 9356 9257 9355 9454 9455 9356 9454 9553 9554 9455 9553 9652 9653 9554 9652 9751 9752 9653 9751 9850 9851 9752 9850 9949 9950 9851 9949 10048 10049 9950 10048 10147 10148 10049 10147 10246 10247 10148 10246 10345 10346 10247 10345 10444 10445 10346 10444 10543 10544 10445 10543 10642 10643 10544 10642 10741 10742 10643 10741 10840 10841 10742 10840 10939 10940 10841 10939 11038 11039 10940 11038 11137 11138 11039 11137 11236 11237 11138 11236 11335 11336 11237 11335 11434 11435 11336 11434 11533 11534 11435 11533 11632 11633 11534 11632 11731 11732 11633 11731 11830 11831 11732 11830 11929 11930 11831 11929 12028 12029 11930 12028 12127 12128 12029 12127 12226 12227 12128 12226 12325 12326 12227 12325 12424 12425 12326 12424 12523 12524 12425 12523 12622 12623 12524 12622 12721 12722 12623 12721 12820 12821 12722 12820 12919 12920 12821 12919 13018 13019 12920 13018 13117 13118 13019 13117 13216 13217 13118 13216 13315 13316 13217 13315 13414 13415 13316 13414 13513 13514 13415 13513 13612 13613 13514 13612 13711 13712 13613 13711 13810 13811 13712 13810 13909 13910 13811 13909 14008 14009 13910 14008 14107 14108 14009 14107 14206 14207 14108 14206 14305 14306 14207 14305 14404 14405 14306 14404 14503 14504 14405 14503 14602 14603 14504 14602 14701 14702 14603 14701 14800 14801 14702 14800 14899 14900 14801 14899 14998 14999 14900 14998 15097 15098 14999 15097 597 598 15098 595 1931 1932 594 1931 2030 2031 1932 2030 2129 2130 2031 2129 2228 2229 2130 2228 2327 2328 2229 2327 2426 2427 2328 2426 2525 2526 2427 2525 2624 2625 2526 2624 2723 2724 2625 2723 2822 2823 2724 2822 2921 2922 2823 2921 3020 3021 2922 3020 3119 3120 3021 3119 3218 3219 3120 3218 3317 3318 3219 3317 3416 3417 3318 3416 3515 3516 3417 3515 3614 3615 3516 3614 3713 3714 3615 3713 3812 3813 3714 3812 3911 3912 3813 3911 4010 4011 3912 4010 4109 4110 4011 4109 4208 4209 4110 4208 4307 4308 4209 4307 4406 4407 4308 4406 4505 4506 4407 4505 4604 4605 4506 4604 4703 4704 4605 4703 4802 4803 4704 4802 4901 4902 4803 4901 5000 5001 4902 5000 5099 5100 5001 5099 5198 5199 5100 5198 5297 5298 5199 5297 5396 5397 5298 5396 5495 5496 5397 5495 5594 5595 5496 5594 5693 5694 5595 5693 5792 5793 5694 5792 5891 5892 5793 5891 5990 5991 5892 5990 6089 6090 5991 6089 6188 6189 6090 6188 6287 6288 6189 6287 6386 6387 6288 6386 6485 6486 6387 6485 6584 6585 6486 6584 6683 6684 6585 6683 6782 6783 6684 6782 6881 6882 6783 6881 6980 6981 6882 6980 7079 7080 6981 7079 7178 7179 7080 7178 7277 7278 7179 7277 7376 7377 7278 7376 7475 7476 7377 7475 7574 7575 7476 7574 7673 7674 7575 7673 7772 7773 7674 7772 7871 7872 7773 7871 7970 7971 7872 7970 8069 8070 7971 8069 8168 8169 8070 8168 8267 8268 8169 8267 8366 8367 8268 8366 8465 8466 8367 8465 8564 8565 8466 8564 8663 8664 8565 8663 8762 8763 8664 8762 8861 8862 8763 8861 8960 8961 8862 8960 9059 9060 8961 9059 9158 9159 9060 9158 9257 9258 9159 9257 9356 9357 9258 9356 9455 9456 9357 9455 9554 9555 9456 9554 9653 9654 9555 9653 9752 9753 9654 9752 9851 9852 9753 9851 9950 9951 9852 9950 10049 10050 9951 10049 10148 10149 10050 10148 10247 10248 10149 10247 10346 10347 10248 10346 10445 10446 10347 10445 10544 10545 10446 10544 10643 10644 10545 10643 10742 10743 10644 10742 10841 10842 10743 10841 10940 10941 10842 10940 11039 11040 10941 11039 11138 11139 11040 11138 11237 11238 11139 11237 11336 11337 11238 11336 11435 11436 11337 11435 11534 11535 11436 11534 11633 11634 11535 11633 11732 11733 11634 11732 11831 11832 11733 11831 11930 11931 11832 11930 12029 12030 11931 12029 12128 12129 12030 12128 12227 12228 12129 12227 12326 12327 12228 12326 12425 12426 12327 12425 12524 12525 12426 12524 12623 12624 12525 12623 12722 12723 12624 12722 12821 12822 12723 12821 12920 12921 12822 12920 13019 13020 12921 13019 13118 13119 13020 13118 13217 13218 13119 13217 13316 13317 13218 13316 13415 13416 13317 13415 13514 13515 13416 13514 13613 13614 13515 13613 13712 13713 13614 13712 13811 13812 13713 13811 13910 13911 13812 13910 14009 14010 13911 14009 14108 14109 14010 14108 14207 14208 14109 14207 14306 14307 14208 14306 14405 14406 14307 14405 14504 14505 14406 14504 14603 14604 14505 14603 14702 14703 14604 14702 14801 14802 14703 14801 14900 14901 14802 14900 14999 15000 14901 14999 15098 15099 15000 15098 598 599 15099 594 1932 1933 593 1932 2031 2032 1933 2031 2130 2131 2032 2130 2229 2230 2131 2229 2328 2329 2230 2328 2427 2428 2329 2427 2526 2527 2428 2526 2625 2626 2527 2625 2724 2725 2626 2724 2823 2824 2725 2823 2922 2923 2824 2922 3021 3022 2923 3021 3120 3121 3022 3120 3219 3220 3121 3219 3318 3319 3220 3318 3417 3418 3319 3417 3516 3517 3418 3516 3615 3616 3517 3615 3714 3715 3616 3714 3813 3814 3715 3813 3912 3913 3814 3912 4011 4012 3913 4011 4110 4111 4012 4110 4209 4210 4111 4209 4308 4309 4210 4308 4407 4408 4309 4407 4506 4507 4408 4506 4605 4606 4507 4605 4704 4705 4606 4704 4803 4804 4705 4803 4902 4903 4804 4902 5001 5002 4903 5001 5100 5101 5002 5100 5199 5200 5101 5199 5298 5299 5200 5298 5397 5398 5299 5397 5496 5497 5398 5496 5595 5596 5497 5595 5694 5695 5596 5694 5793 5794 5695 5793 5892 5893 5794 5892 5991 5992 5893 5991 6090 6091 5992 6090 6189 6190 6091 6189 6288 6289 6190 6288 6387 6388 6289 6387 6486 6487 6388 6486 6585 6586 6487 6585 6684 6685 6586 6684 6783 6784 6685 6783 6882 6883 6784 6882 6981 6982 6883 6981 7080 7081 6982 7080 7179 7180 7081 7179 7278 7279 7180 7278 7377 7378 7279 7377 7476 7477 7378 7476 7575 7576 7477 7575 7674 7675 7576 7674 7773 7774 7675 7773 7872 7873 7774 7872 7971 7972 7873 7971 8070 8071 7972 8070 8169 8170 8071 8169 8268 8269 8170 8268 8367 8368 8269 8367 8466 8467 8368 8466 8565 8566 8467 8565 8664 8665 8566 8664 8763 8764 8665 8763 8862 8863 8764 8862 8961 8962 8863 8961 9060 9061 8962 9060 9159 9160 9061 9159 9258 9259 9160 9258 9357 9358 9259 9357 9456 9457 9358 9456 9555 9556 9457 9555 9654 9655 9556 9654 9753 9754 9655 9753 9852 9853 9754 9852 9951 9952 9853 9951 10050 10051 9952 10050 10149 10150 10051 10149 10248 10249 10150 10248 10347 10348 10249 10347 10446 10447 10348 10446 10545 10546 10447 10545 10644 10645 10546 10644 10743 10744 10645 10743 10842 10843 10744 10842 10941 10942 10843 10941 11040 11041 10942 11040 11139 11140 11041 11139 11238 11239 11140 11238 11337 11338 11239 11337 11436 11437 11338 11436 11535 11536 11437 11535 11634 11635 11536 11634 11733 11734 11635 11733 11832 11833 11734 11832 11931 11932 11833 11931 12030 12031 11932 12030 12129 12130 12031 12129 12228 12229 12130 12228 12327 12328 12229 12327 12426 12427 12328 12426 12525 12526 12427 12525 12624 12625 12526 12624 12723 12724 12625 12723 12822 12823 12724 12822 12921 12922 12823 12921 13020 13021 12922 13020 13119 13120 13021 13119 13218 13219 13120 13218 13317 13318 13219 13317 13416 13417 13318 13416 13515 13516 13417 13515 13614 13615 13516 13614 13713 13714 13615 13713 13812 13813 13714 13812 13911 13912 13813 13911 14010 14011 13912 14010 14109 14110 14011 14109 14208 14209 14110 14208 14307 14308 14209 14307 14406 14407 14308 14406 14505 14506 14407 14505 14604 14605 14506 14604 14703 14704 14605 14703 14802 14803 14704 14802 14901 14902 14803 14901 15000 15001 14902 15000 15099 15100 15001 15099 599 600 15100 593 1933 1934 592 1933 2032 2033 1934 2032 2131 2132 2033 2131 2230 2231 2132 2230 2329 2330 2231 2329 2428 2429 2330 2428 2527 2528 2429 2527 2626 2627 2528 2626 2725 2726 2627 2725 2824 2825 2726 2824 2923 2924 2825 2923 3022 3023 2924 3022 3121 3122 3023 3121 3220 3221 3122 3220 3319 3320 3221 3319 3418 3419 3320 3418 3517 3518 3419 3517 3616 3617 3518 3616 3715 3716 3617 3715 3814 3815 3716 3814 3913 3914 3815 3913 4012 4013 3914 4012 4111 4112 4013 4111 4210 4211 4112 4210 4309 4310 4211 4309 4408 4409 4310 4408 4507 4508 4409 4507 4606 4607 4508 4606 4705 4706 4607 4705 4804 4805 4706 4804 4903 4904 4805 4903 5002 5003 4904 5002 5101 5102 5003 5101 5200 5201 5102 5200 5299 5300 5201 5299 5398 5399 5300 5398 5497 5498 5399 5497 5596 5597 5498 5596 5695 5696 5597 5695 5794 5795 5696 5794 5893 5894 5795 5893 5992 5993 5894 5992 6091 6092 5993 6091 6190 6191 6092 6190 6289 6290 6191 6289 6388 6389 6290 6388 6487 6488 6389 6487 6586 6587 6488 6586 6685 6686 6587 6685 6784 6785 6686 6784 6883 6884 6785 6883 6982 6983 6884 6982 7081 7082 6983 7081 7180 7181 7082 7180 7279 7280 7181 7279 7378 7379 7280 7378 7477 7478 7379 7477 7576 7577 7478 7576 7675 7676 7577 7675 7774 7775 7676 7774 7873 7874 7775 7873 7972 7973 7874 7972 8071 8072 7973 8071 8170 8171 8072 8170 8269 8270 8171 8269 8368 8369 8270 8368 8467 8468 8369 8467 8566 8567 8468 8566 8665 8666 8567 8665 8764 8765 8666 8764 8863 8864 8765 8863 8962 8963 8864 8962 9061 9062 8963 9061 9160 9161 9062 9160 9259 9260 9161 9259 9358 9359 9260 9358 9457 9458 9359 9457 9556 9557 9458 9556 9655 9656 9557 9655 9754 9755 9656 9754 9853 9854 9755 9853 9952 9953 9854 9952 10051 10052 9953 10051 10150 10151 10052 10150 10249 10250 10151 10249 10348 10349 10250 10348 10447 10448 10349 10447 10546 10547 10448 10546 10645 10646 10547 10645 10744 10745 10646 10744 10843 10844 10745 10843 10942 10943 10844 10942 11041 11042 10943 11041 11140 11141 11042 11140 11239 11240 11141 11239 11338 11339 11240 11338 11437 11438 11339 11437 11536 11537 11438 11536 11635 11636 11537 11635 11734 11735 11636 11734 11833 11834 11735 11833 11932 11933 11834 11932 12031 12032 11933 12031 12130 12131 12032 12130 12229 12230 12131 12229 12328 12329 12230 12328 12427 12428 12329 12427 12526 12527 12428 12526 12625 12626 12527 12625 12724 12725 12626 12724 12823 12824 12725 12823 12922 12923 12824 12922 13021 13022 12923 13021 13120 13121 13022 13120 13219 13220 13121 13219 13318 13319 13220 13318 13417 13418 13319 13417 13516 13517 13418 13516 13615 13616 13517 13615 13714 13715 13616 13714 13813 13814 13715 13813 13912 13913 13814 13912 14011 14012 13913 14011 14110 14111 14012 14110 14209 14210 14111 14209 14308 14309 14210 14308 14407 14408 14309 14407 14506 14507 14408 14506 14605 14606 14507 14605 14704 14705 14606 14704 14803 14804 14705 14803 14902 14903 14804 14902 15001 15002 14903 15001 15100 15101 15002 15100 600 601 15101 592 1934 1935 591 1934 2033 2034 1935 2033 2132 2133 2034 2132 2231 2232 2133 2231 2330 2331 2232 2330 2429 2430 2331 2429 2528 2529 2430 2528 2627 2628 2529 2627 2726 2727 2628 2726 2825 2826 2727 2825 2924 2925 2826 2924 3023 3024 2925 3023 3122 3123 3024 3122 3221 3222 3123 3221 3320 3321 3222 3320 3419 3420 3321 3419 3518 3519 3420 3518 3617 3618 3519 3617 3716 3717 3618 3716 3815 3816 3717 3815 3914 3915 3816 3914 4013 4014 3915 4013 4112 4113 4014 4112 4211 4212 4113 4211 4310 4311 4212 4310 4409 4410 4311 4409 4508 4509 4410 4508 4607 4608 4509 4607 4706 4707 4608 4706 4805 4806 4707 4805 4904 4905 4806 4904 5003 5004 4905 5003 5102 5103 5004 5102 5201 5202 5103 5201 5300 5301 5202 5300 5399 5400 5301 5399 5498 5499 5400 5498 5597 5598 5499 5597 5696 5697 5598 5696 5795 5796 5697 5795 5894 5895 5796 5894 5993 5994 5895 5993 6092 6093 5994 6092 6191 6192 6093 6191 6290 6291 6192 6290 6389 6390 6291 6389 6488 6489 6390 6488 6587 6588 6489 6587 6686 6687 6588 6686 6785 6786 6687 6785 6884 6885 6786 6884 6983 6984 6885 6983 7082 7083 6984 7082 7181 7182 7083 7181 7280 7281 7182 7280 7379 7380 7281 7379 7478 7479 7380 7478 7577 7578 7479 7577 7676 7677 7578 7676 7775 7776 7677 7775 7874 7875 7776 7874 7973 7974 7875 7973 8072 8073 7974 8072 8171 8172 8073 8171 8270 8271 8172 8270 8369 8370 8271 8369 8468 8469 8370 8468 8567 8568 8469 8567 8666 8667 8568 8666 8765 8766 8667 8765 8864 8865 8766 8864 8963 8964 8865 8963 9062 9063 8964 9062 9161 9162 9063 9161 9260 9261 9162 9260 9359 9360 9261 9359 9458 9459 9360 9458 9557 9558 9459 9557 9656 9657 9558 9656 9755 9756 9657 9755 9854 9855 9756 9854 9953 9954 9855 9953 10052 10053 9954 10052 10151 10152 10053 10151 10250 10251 10152 10250 10349 10350 10251 10349 10448 10449 10350 10448 10547 10548 10449 10547 10646 10647 10548 10646 10745 10746 10647 10745 10844 10845 10746 10844 10943 10944 10845 10943 11042 11043 10944 11042 11141 11142 11043 11141 11240 11241 11142 11240 11339 11340 11241 11339 11438 11439 11340 11438 11537 11538 11439 11537 11636 11637 11538 11636 11735 11736 11637 11735 11834 11835 11736 11834 11933 11934 11835 11933 12032 12033 11934 12032 12131 12132 12033 12131 12230 12231 12132 12230 12329 12330 12231 12329 12428 12429 12330 12428 12527 12528 12429 12527 12626 12627 12528 12626 12725 12726 12627 12725 12824 12825 12726 12824 12923 12924 12825 12923 13022 13023 12924 13022 13121 13122 13023 13121 13220 13221 13122 13220 13319 13320 13221 13319 13418 13419 13320 13418 13517 13518 13419 13517 13616 13617 13518 13616 13715 13716 13617 13715 13814 13815 13716 13814 13913 13914 13815 13913 14012 14013 13914 14012 14111 14112 14013 14111 14210 14211 14112 14210 14309 14310 14211 14309 14408 14409 14310 14408 14507 14508 14409 14507 14606 14607 14508 14606 14705 14706 14607 14705 14804 14805 14706 14804 14903 14904 14805 14903 15002 15003 14904 15002 15101 15102 15003 15101 601 602 15102 591 1935 1936 590 1935 2034 2035 1936 2034 2133 2134 2035 2133 2232 2233 2134 2232 2331 2332 2233 2331 2430 2431 2332 2430 2529 2530 2431 2529 2628 2629 2530 2628 2727 2728 2629 2727 2826 2827 2728 2826 2925 2926 2827 2925 3024 3025 2926 3024 3123 3124 3025 3123 3222 3223 3124 3222 3321 3322 3223 3321 3420 3421 3322 3420 3519 3520 3421 3519 3618 3619 3520 3618 3717 3718 3619 3717 3816 3817 3718 3816 3915 3916 3817 3915 4014 4015 3916 4014 4113 4114 4015 4113 4212 4213 4114 4212 4311 4312 4213 4311 4410 4411 4312 4410 4509 4510 4411 4509 4608 4609 4510 4608 4707 4708 4609 4707 4806 4807 4708 4806 4905 4906 4807 4905 5004 5005 4906 5004 5103 5104 5005 5103 5202 5203 5104 5202 5301 5302 5203 5301 5400 5401 5302 5400 5499 5500 5401 5499 5598 5599 5500 5598 5697 5698 5599 5697 5796 5797 5698 5796 5895 5896 5797 5895 5994 5995 5896 5994 6093 6094 5995 6093 6192 6193 6094 6192 6291 6292 6193 6291 6390 6391 6292 6390 6489 6490 6391 6489 6588 6589 6490 6588 6687 6688 6589 6687 6786 6787 6688 6786 6885 6886 6787 6885 6984 6985 6886 6984 7083 7084 6985 7083 7182 7183 7084 7182 7281 7282 7183 7281 7380 7381 7282 7380 7479 7480 7381 7479 7578 7579 7480 7578 7677 7678 7579 7677 7776 7777 7678 7776 7875 7876 7777 7875 7974 7975 7876 7974 8073 8074 7975 8073 8172 8173 8074 8172 8271 8272 8173 8271 8370 8371 8272 8370 8469 8470 8371 8469 8568 8569 8470 8568 8667 8668 8569 8667 8766 8767 8668 8766 8865 8866 8767 8865 8964 8965 8866 8964 9063 9064 8965 9063 9162 9163 9064 9162 9261 9262 9163 9261 9360 9361 9262 9360 9459 9460 9361 9459 9558 9559 9460 9558 9657 9658 9559 9657 9756 9757 9658 9756 9855 9856 9757 9855 9954 9955 9856 9954 10053 10054 9955 10053 10152 10153 10054 10152 10251 10252 10153 10251 10350 10351 10252 10350 10449 10450 10351 10449 10548 10549 10450 10548 10647 10648 10549 10647 10746 10747 10648 10746 10845 10846 10747 10845 10944 10945 10846 10944 11043 11044 10945 11043 11142 11143 11044 11142 11241 11242 11143 11241 11340 11341 11242 11340 11439 11440 11341 11439 11538 11539 11440 11538 11637 11638 11539 11637 11736 11737 11638 11736 11835 11836 11737 11835 11934 11935 11836 11934 12033 12034 11935 12033 12132 12133 12034 12132 12231 12232 12133 12231 12330 12331 12232 12330 12429 12430 12331 12429 12528 12529 12430 12528 12627 12628 12529 12627 12726 12727 12628 12726 12825 12826 12727 12825 12924 12925 12826 12924 13023 13024 12925 13023 13122 13123 13024 13122 13221 13222 13123 13221 13320 13321 13222 13320 13419 13420 13321 13419 13518 13519 13420 13518 13617 13618 13519 13617 13716 13717 13618 13716 13815 13816 13717 13815 13914 13915 13816 13914 14013 14014 13915 14013 14112 14113 14014 14112 14211 14212 14113 14211 14310 14311 14212 14310 14409 14410 14311 14409 14508 14509 14410 14508 14607 14608 14509 14607 14706 14707 14608 14706 14805 14806 14707 14805 14904 14905 14806 14904 15003 15004 14905 15003 15102 15103 15004 15102 602 603 15103 590 1936 1937 589 1936 2035 2036 1937 2035 2134 2135 2036 2134 2233 2234 2135 2233 2332 2333 2234 2332 2431 2432 2333 2431 2530 2531 2432 2530 2629 2630 2531 2629 2728 2729 2630 2728 2827 2828 2729 2827 2926 2927 2828 2926 3025 3026 2927 3025 3124 3125 3026 3124 3223 3224 3125 3223 3322 3323 3224 3322 3421 3422 3323 3421 3520 3521 3422 3520 3619 3620 3521 3619 3718 3719 3620 3718 3817 3818 3719 3817 3916 3917 3818 3916 4015 4016 3917 4015 4114 4115 4016 4114 4213 4214 4115 4213 4312 4313 4214 4312 4411 4412 4313 4411 4510 4511 4412 4510 4609 4610 4511 4609 4708 4709 4610 4708 4807 4808 4709 4807 4906 4907 4808 4906 5005 5006 4907 5005 5104 5105 5006 5104 5203 5204 5105 5203 5302 5303 5204 5302 5401 5402 5303 5401 5500 5501 5402 5500 5599 5600 5501 5599 5698 5699 5600 5698 5797 5798 5699 5797 5896 5897 5798 5896 5995 5996 5897 5995 6094 6095 5996 6094 6193 6194 6095 6193 6292 6293 6194 6292 6391 6392 6293 6391 6490 6491 6392 6490 6589 6590 6491 6589 6688 6689 6590 6688 6787 6788 6689 6787 6886 6887 6788 6886 6985 6986 6887 6985 7084 7085 6986 7084 7183 7184 7085 7183 7282 7283 7184 7282 7381 7382 7283 7381 7480 7481 7382 7480 7579 7580 7481 7579 7678 7679 7580 7678 7777 7778 7679 7777 7876 7877 7778 7876 7975 7976 7877 7975 8074 8075 7976 8074 8173 8174 8075 8173 8272 8273 8174 8272 8371 8372 8273 8371 8470 8471 8372 8470 8569 8570 8471 8569 8668 8669 8570 8668 8767 8768 8669 8767 8866 8867 8768 8866 8965 8966 8867 8965 9064 9065 8966 9064 9163 9164 9065 9163 9262 9263 9164 9262 9361 9362 9263 9361 9460 9461 9362 9460 9559 9560 9461 9559 9658 9659 9560 9658 9757 9758 9659 9757 9856 9857 9758 9856 9955 9956 9857 9955 10054 10055 9956 10054 10153 10154 10055 10153 10252 10253 10154 10252 10351 10352 10253 10351 10450 10451 10352 10450 10549 10550 10451 10549 10648 10649 10550 10648 10747 10748 10649 10747 10846 10847 10748 10846 10945 10946 10847 10945 11044 11045 10946 11044 11143 11144 11045 11143 11242 11243 11144 11242 11341 11342 11243 11341 11440 11441 11342 11440 11539 11540 11441 11539 11638 11639 11540 11638 11737 11738 11639 11737 11836 11837 11738 11836 11935 11936 11837 11935 12034 12035 11936 12034 12133 12134 12035 12133 12232 12233 12134 12232 12331 12332 12233 12331 12430 12431 12332 12430 12529 12530 12431 12529 12628 12629 12530 12628 12727 12728 12629 12727 12826 12827 12728 12826 12925 12926 12827 12925 13024 13025 12926 13024 13123 13124 13025 13123 13222 13223 13124 13222 13321 13322 13223 13321 13420 13421 13322 13420 13519 13520 13421 13519 13618 13619 13520 13618 13717 13718 13619 13717 13816 13817 13718 13816 13915 13916 13817 13915 14014 14015 13916 14014 14113 14114 14015 14113 14212 14213 14114 14212 14311 14312 14213 14311 14410 14411 14312 14410 14509 14510 14411 14509 14608 14609 14510 14608 14707 14708 14609 14707 14806 14807 14708 14806 14905 14906 14807 14905 15004 15005 14906 15004 15103 15104 15005 15103 603 604 15104 589 1937 1938 588 1937 2036 2037 1938 2036 2135 2136 2037 2135 2234 2235 2136 2234 2333 2334 2235 2333 2432 2433 2334 2432 2531 2532 2433 2531 2630 2631 2532 2630 2729 2730 2631 2729 2828 2829 2730 2828 2927 2928 2829 2927 3026 3027 2928 3026 3125 3126 3027 3125 3224 3225 3126 3224 3323 3324 3225 3323 3422 3423 3324 3422 3521 3522 3423 3521 3620 3621 3522 3620 3719 3720 3621 3719 3818 3819 3720 3818 3917 3918 3819 3917 4016 4017 3918 4016 4115 4116 4017 4115 4214 4215 4116 4214 4313 4314 4215 4313 4412 4413 4314 4412 4511 4512 4413 4511 4610 4611 4512 4610 4709 4710 4611 4709 4808 4809 4710 4808 4907 4908 4809 4907 5006 5007 4908 5006 5105 5106 5007 5105 5204 5205 5106 5204 5303 5304 5205 5303 5402 5403 5304 5402 5501 5502 5403 5501 5600 5601 5502 5600 5699 5700 5601 5699 5798 5799 5700 5798 5897 5898 5799 5897 5996 5997 5898 5996 6095 6096 5997 6095 6194 6195 6096 6194 6293 6294 6195 6293 6392 6393 6294 6392 6491 6492 6393 6491 6590 6591 6492 6590 6689 6690 6591 6689 6788 6789 6690 6788 6887 6888 6789 6887 6986 6987 6888 6986 7085 7086 6987 7085 7184 7185 7086 7184 7283 7284 7185 7283 7382 7383 7284 7382 7481 7482 7383 7481 7580 7581 7482 7580 7679 7680 7581 7679 7778 7779 7680 7778 7877 7878 7779 7877 7976 7977 7878 7976 8075 8076 7977 8075 8174 8175 8076 8174 8273 8274 8175 8273 8372 8373 8274 8372 8471 8472 8373 8471 8570 8571 8472 8570 8669 8670 8571 8669 8768 8769 8670 8768 8867 8868 8769 8867 8966 8967 8868 8966 9065 9066 8967 9065 9164 9165 9066 9164 9263 9264 9165 9263 9362 9363 9264 9362 9461 9462 9363 9461 9560 9561 9462 9560 9659 9660 9561 9659 9758 9759 9660 9758 9857 9858 9759 9857 9956 9957 9858 9956 10055 10056 9957 10055 10154 10155 10056 10154 10253 10254 10155 10253 10352 10353 10254 10352 10451 10452 10353 10451 10550 10551 10452 10550 10649 10650 10551 10649 10748 10749 10650 10748 10847 10848 10749 10847 10946 10947 10848 10946 11045 11046 10947 11045 11144 11145 11046 11144 11243 11244 11145 11243 11342 11343 11244 11342 11441 11442 11343 11441 11540 11541 11442 11540 11639 11640 11541 11639 11738 11739 11640 11738 11837 11838 11739 11837 11936 11937 11838 11936 12035 12036 11937 12035 12134 12135 12036 12134 12233 12234 12135 12233 12332 12333 12234 12332 12431 12432 12333 12431 12530 12531 12432 12530 12629 12630 12531 12629 12728 12729 12630 12728 12827 12828 12729 12827 12926 12927 12828 12926 13025 13026 12927 13025 13124 13125 13026 13124 13223 13224 13125 13223 13322 13323 13224 13322 13421 13422 13323 13421 13520 13521 13422 13520 13619 13620 13521 13619 13718 13719 13620 13718 13817 13818 13719 13817 13916 13917 13818 13916 14015 14016 13917 14015 14114 14115 14016 14114 14213 14214 14115 14213 14312 14313 14214 14312 14411 14412 14313 14411 14510 14511 14412 14510 14609 14610 14511 14609 14708 14709 14610 14708 14807 14808 14709 14807 14906 14907 14808 14906 15005 15006 14907 15005 15104 15105 15006 15104 604 605 15105 588 1938 1939 587 1938 2037 2038 1939 2037 2136 2137 2038 2136 2235 2236 2137 2235 2334 2335 2236 2334 2433 2434 2335 2433 2532 2533 2434 2532 2631 2632 2533 2631 2730 2731 2632 2730 2829 2830 2731 2829 2928 2929 2830 2928 3027 3028 2929 3027 3126 3127 3028 3126 3225 3226 3127 3225 3324 3325 3226 3324 3423 3424 3325 3423 3522 3523 3424 3522 3621 3622 3523 3621 3720 3721 3622 3720 3819 3820 3721 3819 3918 3919 3820 3918 4017 4018 3919 4017 4116 4117 4018 4116 4215 4216 4117 4215 4314 4315 4216 4314 4413 4414 4315 4413 4512 4513 4414 4512 4611 4612 4513 4611 4710 4711 4612 4710 4809 4810 4711 4809 4908 4909 4810 4908 5007 5008 4909 5007 5106 5107 5008 5106 5205 5206 5107 5205 5304 5305 5206 5304 5403 5404 5305 5403 5502 5503 5404 5502 5601 5602 5503 5601 5700 5701 5602 5700 5799 5800 5701 5799 5898 5899 5800 5898 5997 5998 5899 5997 6096 6097 5998 6096 6195 6196 6097 6195 6294 6295 6196 6294 6393 6394 6295 6393 6492 6493 6394 6492 6591 6592 6493 6591 6690 6691 6592 6690 6789 6790 6691 6789 6888 6889 6790 6888 6987 6988 6889 6987 7086 7087 6988 7086 7185 7186 7087 7185 7284 7285 7186 7284 7383 7384 7285 7383 7482 7483 7384 7482 7581 7582 7483 7581 7680 7681 7582 7680 7779 7780 7681 7779 7878 7879 7780 7878 7977 7978 7879 7977 8076 8077 7978 8076 8175 8176 8077 8175 8274 8275 8176 8274 8373 8374 8275 8373 8472 8473 8374 8472 8571 8572 8473 8571 8670 8671 8572 8670 8769 8770 8671 8769 8868 8869 8770 8868 8967 8968 8869 8967 9066 9067 8968 9066 9165 9166 9067 9165 9264 9265 9166 9264 9363 9364 9265 9363 9462 9463 9364 9462 9561 9562 9463 9561 9660 9661 9562 9660 9759 9760 9661 9759 9858 9859 9760 9858 9957 9958 9859 9957 10056 10057 9958 10056 10155 10156 10057 10155 10254 10255 10156 10254 10353 10354 10255 10353 10452 10453 10354 10452 10551 10552 10453 10551 10650 10651 10552 10650 10749 10750 10651 10749 10848 10849 10750 10848 10947 10948 10849 10947 11046 11047 10948 11046 11145 11146 11047 11145 11244 11245 11146 11244 11343 11344 11245 11343 11442 11443 11344 11442 11541 11542 11443 11541 11640 11641 11542 11640 11739 11740 11641 11739 11838 11839 11740 11838 11937 11938 11839 11937 12036 12037 11938 12036 12135 12136 12037 12135 12234 12235 12136 12234 12333 12334 12235 12333 12432 12433 12334 12432 12531 12532 12433 12531 12630 12631 12532 12630 12729 12730 12631 12729 12828 12829 12730 12828 12927 12928 12829 12927 13026 13027 12928 13026 13125 13126 13027 13125 13224 13225 13126 13224 13323 13324 13225 13323 13422 13423 13324 13422 13521 13522 13423 13521 13620 13621 13522 13620 13719 13720 13621 13719 13818 13819 13720 13818 13917 13918 13819 13917 14016 14017 13918 14016 14115 14116 14017 14115 14214 14215 14116 14214 14313 14314 14215 14313 14412 14413 14314 14412 14511 14512 14413 14511 14610 14611 14512 14610 14709 14710 14611 14709 14808 14809 14710 14808 14907 14908 14809 14907 15006 15007 14908 15006 15105 15106 15007 15105 605 606 15106 587 1939 1940 586 1939 2038 2039 1940 2038 2137 2138 2039 2137 2236 2237 2138 2236 2335 2336 2237 2335 2434 2435 2336 2434 2533 2534 2435 2533 2632 2633 2534 2632 2731 2732 2633 2731 2830 2831 2732 2830 2929 2930 2831 2929 3028 3029 2930 3028 3127 3128 3029 3127 3226 3227 3128 3226 3325 3326 3227 3325 3424 3425 3326 3424 3523 3524 3425 3523 3622 3623 3524 3622 3721 3722 3623 3721 3820 3821 3722 3820 3919 3920 3821 3919 4018 4019 3920 4018 4117 4118 4019 4117 4216 4217 4118 4216 4315 4316 4217 4315 4414 4415 4316 4414 4513 4514 4415 4513 4612 4613 4514 4612 4711 4712 4613 4711 4810 4811 4712 4810 4909 4910 4811 4909 5008 5009 4910 5008 5107 5108 5009 5107 5206 5207 5108 5206 5305 5306 5207 5305 5404 5405 5306 5404 5503 5504 5405 5503 5602 5603 5504 5602 5701 5702 5603 5701 5800 5801 5702 5800 5899 5900 5801 5899 5998 5999 5900 5998 6097 6098 5999 6097 6196 6197 6098 6196 6295 6296 6197 6295 6394 6395 6296 6394 6493 6494 6395 6493 6592 6593 6494 6592 6691 6692 6593 6691 6790 6791 6692 6790 6889 6890 6791 6889 6988 6989 6890 6988 7087 7088 6989 7087 7186 7187 7088 7186 7285 7286 7187 7285 7384 7385 7286 7384 7483 7484 7385 7483 7582 7583 7484 7582 7681 7682 7583 7681 7780 7781 7682 7780 7879 7880 7781 7879 7978 7979 7880 7978 8077 8078 7979 8077 8176 8177 8078 8176 8275 8276 8177 8275 8374 8375 8276 8374 8473 8474 8375 8473 8572 8573 8474 8572 8671 8672 8573 8671 8770 8771 8672 8770 8869 8870 8771 8869 8968 8969 8870 8968 9067 9068 8969 9067 9166 9167 9068 9166 9265 9266 9167 9265 9364 9365 9266 9364 9463 9464 9365 9463 9562 9563 9464 9562 9661 9662 9563 9661 9760 9761 9662 9760 9859 9860 9761 9859 9958 9959 9860 9958 10057 10058 9959 10057 10156 10157 10058 10156 10255 10256 10157 10255 10354 10355 10256 10354 10453 10454 10355 10453 10552 10553 10454 10552 10651 10652 10553 10651 10750 10751 10652 10750 10849 10850 10751 10849 10948 10949 10850 10948 11047 11048 10949 11047 11146 11147 11048 11146 11245 11246 11147 11245 11344 11345 11246 11344 11443 11444 11345 11443 11542 11543 11444 11542 11641 11642 11543 11641 11740 11741 11642 11740 11839 11840 11741 11839 11938 11939 11840 11938 12037 12038 11939 12037 12136 12137 12038 12136 12235 12236 12137 12235 12334 12335 12236 12334 12433 12434 12335 12433 12532 12533 12434 12532 12631 12632 12533 12631 12730 12731 12632 12730 12829 12830 12731 12829 12928 12929 12830 12928 13027 13028 12929 13027 13126 13127 13028 13126 13225 13226 13127 13225 13324 13325 13226 13324 13423 13424 13325 13423 13522 13523 13424 13522 13621 13622 13523 13621 13720 13721 13622 13720 13819 13820 13721 13819 13918 13919 13820 13918 14017 14018 13919 14017 14116 14117 14018 14116 14215 14216 14117 14215 14314 14315 14216 14314 14413 14414 14315 14413 14512 14513 14414 14512 14611 14612 14513 14611 14710 14711 14612 14710 14809 14810 14711 14809 14908 14909 14810 14908 15007 15008 14909 15007 15106 15107 15008 15106 606 607 15107 586 1940 1941 585 1940 2039 2040 1941 2039 2138 2139 2040 2138 2237 2238 2139 2237 2336 2337 2238 2336 2435 2436 2337 2435 2534 2535 2436 2534 2633 2634 2535 2633 2732 2733 2634 2732 2831 2832 2733 2831 2930 2931 2832 2930 3029 3030 2931 3029 3128 3129 3030 3128 3227 3228 3129 3227 3326 3327 3228 3326 3425 3426 3327 3425 3524 3525 3426 3524 3623 3624 3525 3623 3722 3723 3624 3722 3821 3822 3723 3821 3920 3921 3822 3920 4019 4020 3921 4019 4118 4119 4020 4118 4217 4218 4119 4217 4316 4317 4218 4316 4415 4416 4317 4415 4514 4515 4416 4514 4613 4614 4515 4613 4712 4713 4614 4712 4811 4812 4713 4811 4910 4911 4812 4910 5009 5010 4911 5009 5108 5109 5010 5108 5207 5208 5109 5207 5306 5307 5208 5306 5405 5406 5307 5405 5504 5505 5406 5504 5603 5604 5505 5603 5702 5703 5604 5702 5801 5802 5703 5801 5900 5901 5802 5900 5999 6000 5901 5999 6098 6099 6000 6098 6197 6198 6099 6197 6296 6297 6198 6296 6395 6396 6297 6395 6494 6495 6396 6494 6593 6594 6495 6593 6692 6693 6594 6692 6791 6792 6693 6791 6890 6891 6792 6890 6989 6990 6891 6989 7088 7089 6990 7088 7187 7188 7089 7187 7286 7287 7188 7286 7385 7386 7287 7385 7484 7485 7386 7484 7583 7584 7485 7583 7682 7683 7584 7682 7781 7782 7683 7781 7880 7881 7782 7880 7979 7980 7881 7979 8078 8079 7980 8078 8177 8178 8079 8177 8276 8277 8178 8276 8375 8376 8277 8375 8474 8475 8376 8474 8573 8574 8475 8573 8672 8673 8574 8672 8771 8772 8673 8771 8870 8871 8772 8870 8969 8970 8871 8969 9068 9069 8970 9068 9167 9168 9069 9167 9266 9267 9168 9266 9365 9366 9267 9365 9464 9465 9366 9464 9563 9564 9465 9563 9662 9663 9564 9662 9761 9762 9663 9761 9860 9861 9762 9860 9959 9960 9861 9959 10058 10059 9960 10058 10157 10158 10059 10157 10256 10257 10158 10256 10355 10356 10257 10355 10454 10455 10356 10454 10553 10554 10455 10553 10652 10653 10554 10652 10751 10752 10653 10751 10850 10851 10752 10850 10949 10950 10851 10949 11048 11049 10950 11048 11147 11148 11049 11147 11246 11247 11148 11246 11345 11346 11247 11345 11444 11445 11346 11444 11543 11544 11445 11543 11642 11643 11544 11642 11741 11742 11643 11741 11840 11841 11742 11840 11939 11940 11841 11939 12038 12039 11940 12038 12137 12138 12039 12137 12236 12237 12138 12236 12335 12336 12237 12335 12434 12435 12336 12434 12533 12534 12435 12533 12632 12633 12534 12632 12731 12732 12633 12731 12830 12831 12732 12830 12929 12930 12831 12929 13028 13029 12930 13028 13127 13128 13029 13127 13226 13227 13128 13226 13325 13326 13227 13325 13424 13425 13326 13424 13523 13524 13425 13523 13622 13623 13524 13622 13721 13722 13623 13721 13820 13821 13722 13820 13919 13920 13821 13919 14018 14019 13920 14018 14117 14118 14019 14117 14216 14217 14118 14216 14315 14316 14217 14315 14414 14415 14316 14414 14513 14514 14415 14513 14612 14613 14514 14612 14711 14712 14613 14711 14810 14811 14712 14810 14909 14910 14811 14909 15008 15009 14910 15008 15107 15108 15009 15107 607 608 15108 585 1941 1942 584 1941 2040 2041 1942 2040 2139 2140 2041 2139 2238 2239 2140 2238 2337 2338 2239 2337 2436 2437 2338 2436 2535 2536 2437 2535 2634 2635 2536 2634 2733 2734 2635 2733 2832 2833 2734 2832 2931 2932 2833 2931 3030 3031 2932 3030 3129 3130 3031 3129 3228 3229 3130 3228 3327 3328 3229 3327 3426 3427 3328 3426 3525 3526 3427 3525 3624 3625 3526 3624 3723 3724 3625 3723 3822 3823 3724 3822 3921 3922 3823 3921 4020 4021 3922 4020 4119 4120 4021 4119 4218 4219 4120 4218 4317 4318 4219 4317 4416 4417 4318 4416 4515 4516 4417 4515 4614 4615 4516 4614 4713 4714 4615 4713 4812 4813 4714 4812 4911 4912 4813 4911 5010 5011 4912 5010 5109 5110 5011 5109 5208 5209 5110 5208 5307 5308 5209 5307 5406 5407 5308 5406 5505 5506 5407 5505 5604 5605 5506 5604 5703 5704 5605 5703 5802 5803 5704 5802 5901 5902 5803 5901 6000 6001 5902 6000 6099 6100 6001 6099 6198 6199 6100 6198 6297 6298 6199 6297 6396 6397 6298 6396 6495 6496 6397 6495 6594 6595 6496 6594 6693 6694 6595 6693 6792 6793 6694 6792 6891 6892 6793 6891 6990 6991 6892 6990 7089 7090 6991 7089 7188 7189 7090 7188 7287 7288 7189 7287 7386 7387 7288 7386 7485 7486 7387 7485 7584 7585 7486 7584 7683 7684 7585 7683 7782 7783 7684 7782 7881 7882 7783 7881 7980 7981 7882 7980 8079 8080 7981 8079 8178 8179 8080 8178 8277 8278 8179 8277 8376 8377 8278 8376 8475 8476 8377 8475 8574 8575 8476 8574 8673 8674 8575 8673 8772 8773 8674 8772 8871 8872 8773 8871 8970 8971 8872 8970 9069 9070 8971 9069 9168 9169 9070 9168 9267 9268 9169 9267 9366 9367 9268 9366 9465 9466 9367 9465 9564 9565 9466 9564 9663 9664 9565 9663 9762 9763 9664 9762 9861 9862 9763 9861 9960 9961 9862 9960 10059 10060 9961 10059 10158 10159 10060 10158 10257 10258 10159 10257 10356 10357 10258 10356 10455 10456 10357 10455 10554 10555 10456 10554 10653 10654 10555 10653 10752 10753 10654 10752 10851 10852 10753 10851 10950 10951 10852 10950 11049 11050 10951 11049 11148 11149 11050 11148 11247 11248 11149 11247 11346 11347 11248 11346 11445 11446 11347 11445 11544 11545 11446 11544 11643 11644 11545 11643 11742 11743 11644 11742 11841 11842 11743 11841 11940 11941 11842 11940 12039 12040 11941 12039 12138 12139 12040 12138 12237 12238 12139 12237 12336 12337 12238 12336 12435 12436 12337 12435 12534 12535 12436 12534 12633 12634 12535 12633 12732 12733 12634 12732 12831 12832 12733 12831 12930 12931 12832 12930 13029 13030 12931 13029 13128 13129 13030 13128 13227 13228 13129 13227 13326 13327 13228 13326 13425 13426 13327 13425 13524 13525 13426 13524 13623 13624 13525 13623 13722 13723 13624 13722 13821 13822 13723 13821 13920 13921 13822 13920 14019 14020 13921 14019 14118 14119 14020 14118 14217 14218 14119 14217 14316 14317 14218 14316 14415 14416 14317 14415 14514 14515 14416 14514 14613 14614 14515 14613 14712 14713 14614 14712 14811 14812 14713 14811 14910 14911 14812 14910 15009 15010 14911 15009 15108 15109 15010 15108 608 609 15109 584 1942 1943 583 1942 2041 2042 1943 2041 2140 2141 2042 2140 2239 2240 2141 2239 2338 2339 2240 2338 2437 2438 2339 2437 2536 2537 2438 2536 2635 2636 2537 2635 2734 2735 2636 2734 2833 2834 2735 2833 2932 2933 2834 2932 3031 3032 2933 3031 3130 3131 3032 3130 3229 3230 3131 3229 3328 3329 3230 3328 3427 3428 3329 3427 3526 3527 3428 3526 3625 3626 3527 3625 3724 3725 3626 3724 3823 3824 3725 3823 3922 3923 3824 3922 4021 4022 3923 4021 4120 4121 4022 4120 4219 4220 4121 4219 4318 4319 4220 4318 4417 4418 4319 4417 4516 4517 4418 4516 4615 4616 4517 4615 4714 4715 4616 4714 4813 4814 4715 4813 4912 4913 4814 4912 5011 5012 4913 5011 5110 5111 5012 5110 5209 5210 5111 5209 5308 5309 5210 5308 5407 5408 5309 5407 5506 5507 5408 5506 5605 5606 5507 5605 5704 5705 5606 5704 5803 5804 5705 5803 5902 5903 5804 5902 6001 6002 5903 6001 6100 6101 6002 6100 6199 6200 6101 6199 6298 6299 6200 6298 6397 6398 6299 6397 6496 6497 6398 6496 6595 6596 6497 6595 6694 6695 6596 6694 6793 6794 6695 6793 6892 6893 6794 6892 6991 6992 6893 6991 7090 7091 6992 7090 7189 7190 7091 7189 7288 7289 7190 7288 7387 7388 7289 7387 7486 7487 7388 7486 7585 7586 7487 7585 7684 7685 7586 7684 7783 7784 7685 7783 7882 7883 7784 7882 7981 7982 7883 7981 8080 8081 7982 8080 8179 8180 8081 8179 8278 8279 8180 8278 8377 8378 8279 8377 8476 8477 8378 8476 8575 8576 8477 8575 8674 8675 8576 8674 8773 8774 8675 8773 8872 8873 8774 8872 8971 8972 8873 8971 9070 9071 8972 9070 9169 9170 9071 9169 9268 9269 9170 9268 9367 9368 9269 9367 9466 9467 9368 9466 9565 9566 9467 9565 9664 9665 9566 9664 9763 9764 9665 9763 9862 9863 9764 9862 9961 9962 9863 9961 10060 10061 9962 10060 10159 10160 10061 10159 10258 10259 10160 10258 10357 10358 10259 10357 10456 10457 10358 10456 10555 10556 10457 10555 10654 10655 10556 10654 10753 10754 10655 10753 10852 10853 10754 10852 10951 10952 10853 10951 11050 11051 10952 11050 11149 11150 11051 11149 11248 11249 11150 11248 11347 11348 11249 11347 11446 11447 11348 11446 11545 11546 11447 11545 11644 11645 11546 11644 11743 11744 11645 11743 11842 11843 11744 11842 11941 11942 11843 11941 12040 12041 11942 12040 12139 12140 12041 12139 12238 12239 12140 12238 12337 12338 12239 12337 12436 12437 12338 12436 12535 12536 12437 12535 12634 12635 12536 12634 12733 12734 12635 12733 12832 12833 12734 12832 12931 12932 12833 12931 13030 13031 12932 13030 13129 13130 13031 13129 13228 13229 13130 13228 13327 13328 13229 13327 13426 13427 13328 13426 13525 13526 13427 13525 13624 13625 13526 13624 13723 13724 13625 13723 13822 13823 13724 13822 13921 13922 13823 13921 14020 14021 13922 14020 14119 14120 14021 14119 14218 14219 14120 14218 14317 14318 14219 14317 14416 14417 14318 14416 14515 14516 14417 14515 14614 14615 14516 14614 14713 14714 14615 14713 14812 14813 14714 14812 14911 14912 14813 14911 15010 15011 14912 15010 15109 15110 15011 15109 609 610 15110 583 1943 1944 582 1943 2042 2043 1944 2042 2141 2142 2043 2141 2240 2241 2142 2240 2339 2340 2241 2339 2438 2439 2340 2438 2537 2538 2439 2537 2636 2637 2538 2636 2735 2736 2637 2735 2834 2835 2736 2834 2933 2934 2835 2933 3032 3033 2934 3032 3131 3132 3033 3131 3230 3231 3132 3230 3329 3330 3231 3329 3428 3429 3330 3428 3527 3528 3429 3527 3626 3627 3528 3626 3725 3726 3627 3725 3824 3825 3726 3824 3923 3924 3825 3923 4022 4023 3924 4022 4121 4122 4023 4121 4220 4221 4122 4220 4319 4320 4221 4319 4418 4419 4320 4418 4517 4518 4419 4517 4616 4617 4518 4616 4715 4716 4617 4715 4814 4815 4716 4814 4913 4914 4815 4913 5012 5013 4914 5012 5111 5112 5013 5111 5210 5211 5112 5210 5309 5310 5211 5309 5408 5409 5310 5408 5507 5508 5409 5507 5606 5607 5508 5606 5705 5706 5607 5705 5804 5805 5706 5804 5903 5904 5805 5903 6002 6003 5904 6002 6101 6102 6003 6101 6200 6201 6102 6200 6299 6300 6201 6299 6398 6399 6300 6398 6497 6498 6399 6497 6596 6597 6498 6596 6695 6696 6597 6695 6794 6795 6696 6794 6893 6894 6795 6893 6992 6993 6894 6992 7091 7092 6993 7091 7190 7191 7092 7190 7289 7290 7191 7289 7388 7389 7290 7388 7487 7488 7389 7487 7586 7587 7488 7586 7685 7686 7587 7685 7784 7785 7686 7784 7883 7884 7785 7883 7982 7983 7884 7982 8081 8082 7983 8081 8180 8181 8082 8180 8279 8280 8181 8279 8378 8379 8280 8378 8477 8478 8379 8477 8576 8577 8478 8576 8675 8676 8577 8675 8774 8775 8676 8774 8873 8874 8775 8873 8972 8973 8874 8972 9071 9072 8973 9071 9170 9171 9072 9170 9269 9270 9171 9269 9368 9369 9270 9368 9467 9468 9369 9467 9566 9567 9468 9566 9665 9666 9567 9665 9764 9765 9666 9764 9863 9864 9765 9863 9962 9963 9864 9962 10061 10062 9963 10061 10160 10161 10062 10160 10259 10260 10161 10259 10358 10359 10260 10358 10457 10458 10359 10457 10556 10557 10458 10556 10655 10656 10557 10655 10754 10755 10656 10754 10853 10854 10755 10853 10952 10953 10854 10952 11051 11052 10953 11051 11150 11151 11052 11150 11249 11250 11151 11249 11348 11349 11250 11348 11447 11448 11349 11447 11546 11547 11448 11546 11645 11646 11547 11645 11744 11745 11646 11744 11843 11844 11745 11843 11942 11943 11844 11942 12041 12042 11943 12041 12140 12141 12042 12140 12239 12240 12141 12239 12338 12339 12240 12338 12437 12438 12339 12437 12536 12537 12438 12536 12635 12636 12537 12635 12734 12735 12636 12734 12833 12834 12735 12833 12932 12933 12834 12932 13031 13032 12933 13031 13130 13131 13032 13130 13229 13230 13131 13229 13328 13329 13230 13328 13427 13428 13329 13427 13526 13527 13428 13526 13625 13626 13527 13625 13724 13725 13626 13724 13823 13824 13725 13823 13922 13923 13824 13922 14021 14022 13923 14021 14120 14121 14022 14120 14219 14220 14121 14219 14318 14319 14220 14318 14417 14418 14319 14417 14516 14517 14418 14516 14615 14616 14517 14615 14714 14715 14616 14714 14813 14814 14715 14813 14912 14913 14814 14912 15011 15012 14913 15011 15110 15111 15012 15110 610 611 15111 582 1944 1945 581 1944 2043 2044 1945 2043 2142 2143 2044 2142 2241 2242 2143 2241 2340 2341 2242 2340 2439 2440 2341 2439 2538 2539 2440 2538 2637 2638 2539 2637 2736 2737 2638 2736 2835 2836 2737 2835 2934 2935 2836 2934 3033 3034 2935 3033 3132 3133 3034 3132 3231 3232 3133 3231 3330 3331 3232 3330 3429 3430 3331 3429 3528 3529 3430 3528 3627 3628 3529 3627 3726 3727 3628 3726 3825 3826 3727 3825 3924 3925 3826 3924 4023 4024 3925 4023 4122 4123 4024 4122 4221 4222 4123 4221 4320 4321 4222 4320 4419 4420 4321 4419 4518 4519 4420 4518 4617 4618 4519 4617 4716 4717 4618 4716 4815 4816 4717 4815 4914 4915 4816 4914 5013 5014 4915 5013 5112 5113 5014 5112 5211 5212 5113 5211 5310 5311 5212 5310 5409 5410 5311 5409 5508 5509 5410 5508 5607 5608 5509 5607 5706 5707 5608 5706 5805 5806 5707 5805 5904 5905 5806 5904 6003 6004 5905 6003 6102 6103 6004 6102 6201 6202 6103 6201 6300 6301 6202 6300 6399 6400 6301 6399 6498 6499 6400 6498 6597 6598 6499 6597 6696 6697 6598 6696 6795 6796 6697 6795 6894 6895 6796 6894 6993 6994 6895 6993 7092 7093 6994 7092 7191 7192 7093 7191 7290 7291 7192 7290 7389 7390 7291 7389 7488 7489 7390 7488 7587 7588 7489 7587 7686 7687 7588 7686 7785 7786 7687 7785 7884 7885 7786 7884 7983 7984 7885 7983 8082 8083 7984 8082 8181 8182 8083 8181 8280 8281 8182 8280 8379 8380 8281 8379 8478 8479 8380 8478 8577 8578 8479 8577 8676 8677 8578 8676 8775 8776 8677 8775 8874 8875 8776 8874 8973 8974 8875 8973 9072 9073 8974 9072 9171 9172 9073 9171 9270 9271 9172 9270 9369 9370 9271 9369 9468 9469 9370 9468 9567 9568 9469 9567 9666 9667 9568 9666 9765 9766 9667 9765 9864 9865 9766 9864 9963 9964 9865 9963 10062 10063 9964 10062 10161 10162 10063 10161 10260 10261 10162 10260 10359 10360 10261 10359 10458 10459 10360 10458 10557 10558 10459 10557 10656 10657 10558 10656 10755 10756 10657 10755 10854 10855 10756 10854 10953 10954 10855 10953 11052 11053 10954 11052 11151 11152 11053 11151 11250 11251 11152 11250 11349 11350 11251 11349 11448 11449 11350 11448 11547 11548 11449 11547 11646 11647 11548 11646 11745 11746 11647 11745 11844 11845 11746 11844 11943 11944 11845 11943 12042 12043 11944 12042 12141 12142 12043 12141 12240 12241 12142 12240 12339 12340 12241 12339 12438 12439 12340 12438 12537 12538 12439 12537 12636 12637 12538 12636 12735 12736 12637 12735 12834 12835 12736 12834 12933 12934 12835 12933 13032 13033 12934 13032 13131 13132 13033 13131 13230 13231 13132 13230 13329 13330 13231 13329 13428 13429 13330 13428 13527 13528 13429 13527 13626 13627 13528 13626 13725 13726 13627 13725 13824 13825 13726 13824 13923 13924 13825 13923 14022 14023 13924 14022 14121 14122 14023 14121 14220 14221 14122 14220 14319 14320 14221 14319 14418 14419 14320 14418 14517 14518 14419 14517 14616 14617 14518 14616 14715 14716 14617 14715 14814 14815 14716 14814 14913 14914 14815 14913 15012 15013 14914 15012 15111 15112 15013 15111 611 612 15112 581 1945 1946 580 1945 2044 2045 1946 2044 2143 2144 2045 2143 2242 2243 2144 2242 2341 2342 2243 2341 2440 2441 2342 2440 2539 2540 2441 2539 2638 2639 2540 2638 2737 2738 2639 2737 2836 2837 2738 2836 2935 2936 2837 2935 3034 3035 2936 3034 3133 3134 3035 3133 3232 3233 3134 3232 3331 3332 3233 3331 3430 3431 3332 3430 3529 3530 3431 3529 3628 3629 3530 3628 3727 3728 3629 3727 3826 3827 3728 3826 3925 3926 3827 3925 4024 4025 3926 4024 4123 4124 4025 4123 4222 4223 4124 4222 4321 4322 4223 4321 4420 4421 4322 4420 4519 4520 4421 4519 4618 4619 4520 4618 4717 4718 4619 4717 4816 4817 4718 4816 4915 4916 4817 4915 5014 5015 4916 5014 5113 5114 5015 5113 5212 5213 5114 5212 5311 5312 5213 5311 5410 5411 5312 5410 5509 5510 5411 5509 5608 5609 5510 5608 5707 5708 5609 5707 5806 5807 5708 5806 5905 5906 5807 5905 6004 6005 5906 6004 6103 6104 6005 6103 6202 6203 6104 6202 6301 6302 6203 6301 6400 6401 6302 6400 6499 6500 6401 6499 6598 6599 6500 6598 6697 6698 6599 6697 6796 6797 6698 6796 6895 6896 6797 6895 6994 6995 6896 6994 7093 7094 6995 7093 7192 7193 7094 7192 7291 7292 7193 7291 7390 7391 7292 7390 7489 7490 7391 7489 7588 7589 7490 7588 7687 7688 7589 7687 7786 7787 7688 7786 7885 7886 7787 7885 7984 7985 7886 7984 8083 8084 7985 8083 8182 8183 8084 8182 8281 8282 8183 8281 8380 8381 8282 8380 8479 8480 8381 8479 8578 8579 8480 8578 8677 8678 8579 8677 8776 8777 8678 8776 8875 8876 8777 8875 8974 8975 8876 8974 9073 9074 8975 9073 9172 9173 9074 9172 9271 9272 9173 9271 9370 9371 9272 9370 9469 9470 9371 9469 9568 9569 9470 9568 9667 9668 9569 9667 9766 9767 9668 9766 9865 9866 9767 9865 9964 9965 9866 9964 10063 10064 9965 10063 10162 10163 10064 10162 10261 10262 10163 10261 10360 10361 10262 10360 10459 10460 10361 10459 10558 10559 10460 10558 10657 10658 10559 10657 10756 10757 10658 10756 10855 10856 10757 10855 10954 10955 10856 10954 11053 11054 10955 11053 11152 11153 11054 11152 11251 11252 11153 11251 11350 11351 11252 11350 11449 11450 11351 11449 11548 11549 11450 11548 11647 11648 11549 11647 11746 11747 11648 11746 11845 11846 11747 11845 11944 11945 11846 11944 12043 12044 11945 12043 12142 12143 12044 12142 12241 12242 12143 12241 12340 12341 12242 12340 12439 12440 12341 12439 12538 12539 12440 12538 12637 12638 12539 12637 12736 12737 12638 12736 12835 12836 12737 12835 12934 12935 12836 12934 13033 13034 12935 13033 13132 13133 13034 13132 13231 13232 13133 13231 13330 13331 13232 13330 13429 13430 13331 13429 13528 13529 13430 13528 13627 13628 13529 13627 13726 13727 13628 13726 13825 13826 13727 13825 13924 13925 13826 13924 14023 14024 13925 14023 14122 14123 14024 14122 14221 14222 14123 14221 14320 14321 14222 14320 14419 14420 14321 14419 14518 14519 14420 14518 14617 14618 14519 14617 14716 14717 14618 14716 14815 14816 14717 14815 14914 14915 14816 14914 15013 15014 14915 15013 15112 15113 15014 15112 612 613 15113 580 1946 1947 579 1946 2045 2046 1947 2045 2144 2145 2046 2144 2243 2244 2145 2243 2342 2343 2244 2342 2441 2442 2343 2441 2540 2541 2442 2540 2639 2640 2541 2639 2738 2739 2640 2738 2837 2838 2739 2837 2936 2937 2838 2936 3035 3036 2937 3035 3134 3135 3036 3134 3233 3234 3135 3233 3332 3333 3234 3332 3431 3432 3333 3431 3530 3531 3432 3530 3629 3630 3531 3629 3728 3729 3630 3728 3827 3828 3729 3827 3926 3927 3828 3926 4025 4026 3927 4025 4124 4125 4026 4124 4223 4224 4125 4223 4322 4323 4224 4322 4421 4422 4323 4421 4520 4521 4422 4520 4619 4620 4521 4619 4718 4719 4620 4718 4817 4818 4719 4817 4916 4917 4818 4916 5015 5016 4917 5015 5114 5115 5016 5114 5213 5214 5115 5213 5312 5313 5214 5312 5411 5412 5313 5411 5510 5511 5412 5510 5609 5610 5511 5609 5708 5709 5610 5708 5807 5808 5709 5807 5906 5907 5808 5906 6005 6006 5907 6005 6104 6105 6006 6104 6203 6204 6105 6203 6302 6303 6204 6302 6401 6402 6303 6401 6500 6501 6402 6500 6599 6600 6501 6599 6698 6699 6600 6698 6797 6798 6699 6797 6896 6897 6798 6896 6995 6996 6897 6995 7094 7095 6996 7094 7193 7194 7095 7193 7292 7293 7194 7292 7391 7392 7293 7391 7490 7491 7392 7490 7589 7590 7491 7589 7688 7689 7590 7688 7787 7788 7689 7787 7886 7887 7788 7886 7985 7986 7887 7985 8084 8085 7986 8084 8183 8184 8085 8183 8282 8283 8184 8282 8381 8382 8283 8381 8480 8481 8382 8480 8579 8580 8481 8579 8678 8679 8580 8678 8777 8778 8679 8777 8876 8877 8778 8876 8975 8976 8877 8975 9074 9075 8976 9074 9173 9174 9075 9173 9272 9273 9174 9272 9371 9372 9273 9371 9470 9471 9372 9470 9569 9570 9471 9569 9668 9669 9570 9668 9767 9768 9669 9767 9866 9867 9768 9866 9965 9966 9867 9965 10064 10065 9966 10064 10163 10164 10065 10163 10262 10263 10164 10262 10361 10362 10263 10361 10460 10461 10362 10460 10559 10560 10461 10559 10658 10659 10560 10658 10757 10758 10659 10757 10856 10857 10758 10856 10955 10956 10857 10955 11054 11055 10956 11054 11153 11154 11055 11153 11252 11253 11154 11252 11351 11352 11253 11351 11450 11451 11352 11450 11549 11550 11451 11549 11648 11649 11550 11648 11747 11748 11649 11747 11846 11847 11748 11846 11945 11946 11847 11945 12044 12045 11946 12044 12143 12144 12045 12143 12242 12243 12144 12242 12341 12342 12243 12341 12440 12441 12342 12440 12539 12540 12441 12539 12638 12639 12540 12638 12737 12738 12639 12737 12836 12837 12738 12836 12935 12936 12837 12935 13034 13035 12936 13034 13133 13134 13035 13133 13232 13233 13134 13232 13331 13332 13233 13331 13430 13431 13332 13430 13529 13530 13431 13529 13628 13629 13530 13628 13727 13728 13629 13727 13826 13827 13728 13826 13925 13926 13827 13925 14024 14025 13926 14024 14123 14124 14025 14123 14222 14223 14124 14222 14321 14322 14223 14321 14420 14421 14322 14420 14519 14520 14421 14519 14618 14619 14520 14618 14717 14718 14619 14717 14816 14817 14718 14816 14915 14916 14817 14915 15014 15015 14916 15014 15113 15114 15015 15113 613 614 15114 579 1947 1948 578 1947 2046 2047 1948 2046 2145 2146 2047 2145 2244 2245 2146 2244 2343 2344 2245 2343 2442 2443 2344 2442 2541 2542 2443 2541 2640 2641 2542 2640 2739 2740 2641 2739 2838 2839 2740 2838 2937 2938 2839 2937 3036 3037 2938 3036 3135 3136 3037 3135 3234 3235 3136 3234 3333 3334 3235 3333 3432 3433 3334 3432 3531 3532 3433 3531 3630 3631 3532 3630 3729 3730 3631 3729 3828 3829 3730 3828 3927 3928 3829 3927 4026 4027 3928 4026 4125 4126 4027 4125 4224 4225 4126 4224 4323 4324 4225 4323 4422 4423 4324 4422 4521 4522 4423 4521 4620 4621 4522 4620 4719 4720 4621 4719 4818 4819 4720 4818 4917 4918 4819 4917 5016 5017 4918 5016 5115 5116 5017 5115 5214 5215 5116 5214 5313 5314 5215 5313 5412 5413 5314 5412 5511 5512 5413 5511 5610 5611 5512 5610 5709 5710 5611 5709 5808 5809 5710 5808 5907 5908 5809 5907 6006 6007 5908 6006 6105 6106 6007 6105 6204 6205 6106 6204 6303 6304 6205 6303 6402 6403 6304 6402 6501 6502 6403 6501 6600 6601 6502 6600 6699 6700 6601 6699 6798 6799 6700 6798 6897 6898 6799 6897 6996 6997 6898 6996 7095 7096 6997 7095 7194 7195 7096 7194 7293 7294 7195 7293 7392 7393 7294 7392 7491 7492 7393 7491 7590 7591 7492 7590 7689 7690 7591 7689 7788 7789 7690 7788 7887 7888 7789 7887 7986 7987 7888 7986 8085 8086 7987 8085 8184 8185 8086 8184 8283 8284 8185 8283 8382 8383 8284 8382 8481 8482 8383 8481 8580 8581 8482 8580 8679 8680 8581 8679 8778 8779 8680 8778 8877 8878 8779 8877 8976 8977 8878 8976 9075 9076 8977 9075 9174 9175 9076 9174 9273 9274 9175 9273 9372 9373 9274 9372 9471 9472 9373 9471 9570 9571 9472 9570 9669 9670 9571 9669 9768 9769 9670 9768 9867 9868 9769 9867 9966 9967 9868 9966 10065 10066 9967 10065 10164 10165 10066 10164 10263 10264 10165 10263 10362 10363 10264 10362 10461 10462 10363 10461 10560 10561 10462 10560 10659 10660 10561 10659 10758 10759 10660 10758 10857 10858 10759 10857 10956 10957 10858 10956 11055 11056 10957 11055 11154 11155 11056 11154 11253 11254 11155 11253 11352 11353 11254 11352 11451 11452 11353 11451 11550 11551 11452 11550 11649 11650 11551 11649 11748 11749 11650 11748 11847 11848 11749 11847 11946 11947 11848 11946 12045 12046 11947 12045 12144 12145 12046 12144 12243 12244 12145 12243 12342 12343 12244 12342 12441 12442 12343 12441 12540 12541 12442 12540 12639 12640 12541 12639 12738 12739 12640 12738 12837 12838 12739 12837 12936 12937 12838 12936 13035 13036 12937 13035 13134 13135 13036 13134 13233 13234 13135 13233 13332 13333 13234 13332 13431 13432 13333 13431 13530 13531 13432 13530 13629 13630 13531 13629 13728 13729 13630 13728 13827 13828 13729 13827 13926 13927 13828 13926 14025 14026 13927 14025 14124 14125 14026 14124 14223 14224 14125 14223 14322 14323 14224 14322 14421 14422 14323 14421 14520 14521 14422 14520 14619 14620 14521 14619 14718 14719 14620 14718 14817 14818 14719 14817 14916 14917 14818 14916 15015 15016 14917 15015 15114 15115 15016 15114 614 615 15115 578 1948 1949 577 1948 2047 2048 1949 2047 2146 2147 2048 2146 2245 2246 2147 2245 2344 2345 2246 2344 2443 2444 2345 2443 2542 2543 2444 2542 2641 2642 2543 2641 2740 2741 2642 2740 2839 2840 2741 2839 2938 2939 2840 2938 3037 3038 2939 3037 3136 3137 3038 3136 3235 3236 3137 3235 3334 3335 3236 3334 3433 3434 3335 3433 3532 3533 3434 3532 3631 3632 3533 3631 3730 3731 3632 3730 3829 3830 3731 3829 3928 3929 3830 3928 4027 4028 3929 4027 4126 4127 4028 4126 4225 4226 4127 4225 4324 4325 4226 4324 4423 4424 4325 4423 4522 4523 4424 4522 4621 4622 4523 4621 4720 4721 4622 4720 4819 4820 4721 4819 4918 4919 4820 4918 5017 5018 4919 5017 5116 5117 5018 5116 5215 5216 5117 5215 5314 5315 5216 5314 5413 5414 5315 5413 5512 5513 5414 5512 5611 5612 5513 5611 5710 5711 5612 5710 5809 5810 5711 5809 5908 5909 5810 5908 6007 6008 5909 6007 6106 6107 6008 6106 6205 6206 6107 6205 6304 6305 6206 6304 6403 6404 6305 6403 6502 6503 6404 6502 6601 6602 6503 6601 6700 6701 6602 6700 6799 6800 6701 6799 6898 6899 6800 6898 6997 6998 6899 6997 7096 7097 6998 7096 7195 7196 7097 7195 7294 7295 7196 7294 7393 7394 7295 7393 7492 7493 7394 7492 7591 7592 7493 7591 7690 7691 7592 7690 7789 7790 7691 7789 7888 7889 7790 7888 7987 7988 7889 7987 8086 8087 7988 8086 8185 8186 8087 8185 8284 8285 8186 8284 8383 8384 8285 8383 8482 8483 8384 8482 8581 8582 8483 8581 8680 8681 8582 8680 8779 8780 8681 8779 8878 8879 8780 8878 8977 8978 8879 8977 9076 9077 8978 9076 9175 9176 9077 9175 9274 9275 9176 9274 9373 9374 9275 9373 9472 9473 9374 9472 9571 9572 9473 9571 9670 9671 9572 9670 9769 9770 9671 9769 9868 9869 9770 9868 9967 9968 9869 9967 10066 10067 9968 10066 10165 10166 10067 10165 10264 10265 10166 10264 10363 10364 10265 10363 10462 10463 10364 10462 10561 10562 10463 10561 10660 10661 10562 10660 10759 10760 10661 10759 10858 10859 10760 10858 10957 10958 10859 10957 11056 11057 10958 11056 11155 11156 11057 11155 11254 11255 11156 11254 11353 11354 11255 11353 11452 11453 11354 11452 11551 11552 11453 11551 11650 11651 11552 11650 11749 11750 11651 11749 11848 11849 11750 11848 11947 11948 11849 11947 12046 12047 11948 12046 12145 12146 12047 12145 12244 12245 12146 12244 12343 12344 12245 12343 12442 12443 12344 12442 12541 12542 12443 12541 12640 12641 12542 12640 12739 12740 12641 12739 12838 12839 12740 12838 12937 12938 12839 12937 13036 13037 12938 13036 13135 13136 13037 13135 13234 13235 13136 13234 13333 13334 13235 13333 13432 13433 13334 13432 13531 13532 13433 13531 13630 13631 13532 13630 13729 13730 13631 13729 13828 13829 13730 13828 13927 13928 13829 13927 14026 14027 13928 14026 14125 14126 14027 14125 14224 14225 14126 14224 14323 14324 14225 14323 14422 14423 14324 14422 14521 14522 14423 14521 14620 14621 14522 14620 14719 14720 14621 14719 14818 14819 14720 14818 14917 14918 14819 14917 15016 15017 14918 15016 15115 15116 15017 15115 615 616 15116 577 1949 1950 576 1949 2048 2049 1950 2048 2147 2148 2049 2147 2246 2247 2148 2246 2345 2346 2247 2345 2444 2445 2346 2444 2543 2544 2445 2543 2642 2643 2544 2642 2741 2742 2643 2741 2840 2841 2742 2840 2939 2940 2841 2939 3038 3039 2940 3038 3137 3138 3039 3137 3236 3237 3138 3236 3335 3336 3237 3335 3434 3435 3336 3434 3533 3534 3435 3533 3632 3633 3534 3632 3731 3732 3633 3731 3830 3831 3732 3830 3929 3930 3831 3929 4028 4029 3930 4028 4127 4128 4029 4127 4226 4227 4128 4226 4325 4326 4227 4325 4424 4425 4326 4424 4523 4524 4425 4523 4622 4623 4524 4622 4721 4722 4623 4721 4820 4821 4722 4820 4919 4920 4821 4919 5018 5019 4920 5018 5117 5118 5019 5117 5216 5217 5118 5216 5315 5316 5217 5315 5414 5415 5316 5414 5513 5514 5415 5513 5612 5613 5514 5612 5711 5712 5613 5711 5810 5811 5712 5810 5909 5910 5811 5909 6008 6009 5910 6008 6107 6108 6009 6107 6206 6207 6108 6206 6305 6306 6207 6305 6404 6405 6306 6404 6503 6504 6405 6503 6602 6603 6504 6602 6701 6702 6603 6701 6800 6801 6702 6800 6899 6900 6801 6899 6998 6999 6900 6998 7097 7098 6999 7097 7196 7197 7098 7196 7295 7296 7197 7295 7394 7395 7296 7394 7493 7494 7395 7493 7592 7593 7494 7592 7691 7692 7593 7691 7790 7791 7692 7790 7889 7890 7791 7889 7988 7989 7890 7988 8087 8088 7989 8087 8186 8187 8088 8186 8285 8286 8187 8285 8384 8385 8286 8384 8483 8484 8385 8483 8582 8583 8484 8582 8681 8682 8583 8681 8780 8781 8682 8780 8879 8880 8781 8879 8978 8979 8880 8978 9077 9078 8979 9077 9176 9177 9078 9176 9275 9276 9177 9275 9374 9375 9276 9374 9473 9474 9375 9473 9572 9573 9474 9572 9671 9672 9573 9671 9770 9771 9672 9770 9869 9870 9771 9869 9968 9969 9870 9968 10067 10068 9969 10067 10166 10167 10068 10166 10265 10266 10167 10265 10364 10365 10266 10364 10463 10464 10365 10463 10562 10563 10464 10562 10661 10662 10563 10661 10760 10761 10662 10760 10859 10860 10761 10859 10958 10959 10860 10958 11057 11058 10959 11057 11156 11157 11058 11156 11255 11256 11157 11255 11354 11355 11256 11354 11453 11454 11355 11453 11552 11553 11454 11552 11651 11652 11553 11651 11750 11751 11652 11750 11849 11850 11751 11849 11948 11949 11850 11948 12047 12048 11949 12047 12146 12147 12048 12146 12245 12246 12147 12245 12344 12345 12246 12344 12443 12444 12345 12443 12542 12543 12444 12542 12641 12642 12543 12641 12740 12741 12642 12740 12839 12840 12741 12839 12938 12939 12840 12938 13037 13038 12939 13037 13136 13137 13038 13136 13235 13236 13137 13235 13334 13335 13236 13334 13433 13434 13335 13433 13532 13533 13434 13532 13631 13632 13533 13631 13730 13731 13632 13730 13829 13830 13731 13829 13928 13929 13830 13928 14027 14028 13929 14027 14126 14127 14028 14126 14225 14226 14127 14225 14324 14325 14226 14324 14423 14424 14325 14423 14522 14523 14424 14522 14621 14622 14523 14621 14720 14721 14622 14720 14819 14820 14721 14819 14918 14919 14820 14918 15017 15018 14919 15017 15116 15117 15018 15116 616 617 15117 576 1950 1951 575 1950 2049 2050 1951 2049 2148 2149 2050 2148 2247 2248 2149 2247 2346 2347 2248 2346 2445 2446 2347 2445 2544 2545 2446 2544 2643 2644 2545 2643 2742 2743 2644 2742 2841 2842 2743 2841 2940 2941 2842 2940 3039 3040 2941 3039 3138 3139 3040 3138 3237 3238 3139 3237 3336 3337 3238 3336 3435 3436 3337 3435 3534 3535 3436 3534 3633 3634 3535 3633 3732 3733 3634 3732 3831 3832 3733 3831 3930 3931 3832 3930 4029 4030 3931 4029 4128 4129 4030 4128 4227 4228 4129 4227 4326 4327 4228 4326 4425 4426 4327 4425 4524 4525 4426 4524 4623 4624 4525 4623 4722 4723 4624 4722 4821 4822 4723 4821 4920 4921 4822 4920 5019 5020 4921 5019 5118 5119 5020 5118 5217 5218 5119 5217 5316 5317 5218 5316 5415 5416 5317 5415 5514 5515 5416 5514 5613 5614 5515 5613 5712 5713 5614 5712 5811 5812 5713 5811 5910 5911 5812 5910 6009 6010 5911 6009 6108 6109 6010 6108 6207 6208 6109 6207 6306 6307 6208 6306 6405 6406 6307 6405 6504 6505 6406 6504 6603 6604 6505 6603 6702 6703 6604 6702 6801 6802 6703 6801 6900 6901 6802 6900 6999 7000 6901 6999 7098 7099 7000 7098 7197 7198 7099 7197 7296 7297 7198 7296 7395 7396 7297 7395 7494 7495 7396 7494 7593 7594 7495 7593 7692 7693 7594 7692 7791 7792 7693 7791 7890 7891 7792 7890 7989 7990 7891 7989 8088 8089 7990 8088 8187 8188 8089 8187 8286 8287 8188 8286 8385 8386 8287 8385 8484 8485 8386 8484 8583 8584 8485 8583 8682 8683 8584 8682 8781 8782 8683 8781 8880 8881 8782 8880 8979 8980 8881 8979 9078 9079 8980 9078 9177 9178 9079 9177 9276 9277 9178 9276 9375 9376 9277 9375 9474 9475 9376 9474 9573 9574 9475 9573 9672 9673 9574 9672 9771 9772 9673 9771 9870 9871 9772 9870 9969 9970 9871 9969 10068 10069 9970 10068 10167 10168 10069 10167 10266 10267 10168 10266 10365 10366 10267 10365 10464 10465 10366 10464 10563 10564 10465 10563 10662 10663 10564 10662 10761 10762 10663 10761 10860 10861 10762 10860 10959 10960 10861 10959 11058 11059 10960 11058 11157 11158 11059 11157 11256 11257 11158 11256 11355 11356 11257 11355 11454 11455 11356 11454 11553 11554 11455 11553 11652 11653 11554 11652 11751 11752 11653 11751 11850 11851 11752 11850 11949 11950 11851 11949 12048 12049 11950 12048 12147 12148 12049 12147 12246 12247 12148 12246 12345 12346 12247 12345 12444 12445 12346 12444 12543 12544 12445 12543 12642 12643 12544 12642 12741 12742 12643 12741 12840 12841 12742 12840 12939 12940 12841 12939 13038 13039 12940 13038 13137 13138 13039 13137 13236 13237 13138 13236 13335 13336 13237 13335 13434 13435 13336 13434 13533 13534 13435 13533 13632 13633 13534 13632 13731 13732 13633 13731 13830 13831 13732 13830 13929 13930 13831 13929 14028 14029 13930 14028 14127 14128 14029 14127 14226 14227 14128 14226 14325 14326 14227 14325 14424 14425 14326 14424 14523 14524 14425 14523 14622 14623 14524 14622 14721 14722 14623 14721 14820 14821 14722 14820 14919 14920 14821 14919 15018 15019 14920 15018 15117 15118 15019 15117 617 618 15118 575 1951 1952 574 1951 2050 2051 1952 2050 2149 2150 2051 2149 2248 2249 2150 2248 2347 2348 2249 2347 2446 2447 2348 2446 2545 2546 2447 2545 2644 2645 2546 2644 2743 2744 2645 2743 2842 2843 2744 2842 2941 2942 2843 2941 3040 3041 2942 3040 3139 3140 3041 3139 3238 3239 3140 3238 3337 3338 3239 3337 3436 3437 3338 3436 3535 3536 3437 3535 3634 3635 3536 3634 3733 3734 3635 3733 3832 3833 3734 3832 3931 3932 3833 3931 4030 4031 3932 4030 4129 4130 4031 4129 4228 4229 4130 4228 4327 4328 4229 4327 4426 4427 4328 4426 4525 4526 4427 4525 4624 4625 4526 4624 4723 4724 4625 4723 4822 4823 4724 4822 4921 4922 4823 4921 5020 5021 4922 5020 5119 5120 5021 5119 5218 5219 5120 5218 5317 5318 5219 5317 5416 5417 5318 5416 5515 5516 5417 5515 5614 5615 5516 5614 5713 5714 5615 5713 5812 5813 5714 5812 5911 5912 5813 5911 6010 6011 5912 6010 6109 6110 6011 6109 6208 6209 6110 6208 6307 6308 6209 6307 6406 6407 6308 6406 6505 6506 6407 6505 6604 6605 6506 6604 6703 6704 6605 6703 6802 6803 6704 6802 6901 6902 6803 6901 7000 7001 6902 7000 7099 7100 7001 7099 7198 7199 7100 7198 7297 7298 7199 7297 7396 7397 7298 7396 7495 7496 7397 7495 7594 7595 7496 7594 7693 7694 7595 7693 7792 7793 7694 7792 7891 7892 7793 7891 7990 7991 7892 7990 8089 8090 7991 8089 8188 8189 8090 8188 8287 8288 8189 8287 8386 8387 8288 8386 8485 8486 8387 8485 8584 8585 8486 8584 8683 8684 8585 8683 8782 8783 8684 8782 8881 8882 8783 8881 8980 8981 8882 8980 9079 9080 8981 9079 9178 9179 9080 9178 9277 9278 9179 9277 9376 9377 9278 9376 9475 9476 9377 9475 9574 9575 9476 9574 9673 9674 9575 9673 9772 9773 9674 9772 9871 9872 9773 9871 9970 9971 9872 9970 10069 10070 9971 10069 10168 10169 10070 10168 10267 10268 10169 10267 10366 10367 10268 10366 10465 10466 10367 10465 10564 10565 10466 10564 10663 10664 10565 10663 10762 10763 10664 10762 10861 10862 10763 10861 10960 10961 10862 10960 11059 11060 10961 11059 11158 11159 11060 11158 11257 11258 11159 11257 11356 11357 11258 11356 11455 11456 11357 11455 11554 11555 11456 11554 11653 11654 11555 11653 11752 11753 11654 11752 11851 11852 11753 11851 11950 11951 11852 11950 12049 12050 11951 12049 12148 12149 12050 12148 12247 12248 12149 12247 12346 12347 12248 12346 12445 12446 12347 12445 12544 12545 12446 12544 12643 12644 12545 12643 12742 12743 12644 12742 12841 12842 12743 12841 12940 12941 12842 12940 13039 13040 12941 13039 13138 13139 13040 13138 13237 13238 13139 13237 13336 13337 13238 13336 13435 13436 13337 13435 13534 13535 13436 13534 13633 13634 13535 13633 13732 13733 13634 13732 13831 13832 13733 13831 13930 13931 13832 13930 14029 14030 13931 14029 14128 14129 14030 14128 14227 14228 14129 14227 14326 14327 14228 14326 14425 14426 14327 14425 14524 14525 14426 14524 14623 14624 14525 14623 14722 14723 14624 14722 14821 14822 14723 14821 14920 14921 14822 14920 15019 15020 14921 15019 15118 15119 15020 15118 618 619 15119 574 1952 1953 573 1952 2051 2052 1953 2051 2150 2151 2052 2150 2249 2250 2151 2249 2348 2349 2250 2348 2447 2448 2349 2447 2546 2547 2448 2546 2645 2646 2547 2645 2744 2745 2646 2744 2843 2844 2745 2843 2942 2943 2844 2942 3041 3042 2943 3041 3140 3141 3042 3140 3239 3240 3141 3239 3338 3339 3240 3338 3437 3438 3339 3437 3536 3537 3438 3536 3635 3636 3537 3635 3734 3735 3636 3734 3833 3834 3735 3833 3932 3933 3834 3932 4031 4032 3933 4031 4130 4131 4032 4130 4229 4230 4131 4229 4328 4329 4230 4328 4427 4428 4329 4427 4526 4527 4428 4526 4625 4626 4527 4625 4724 4725 4626 4724 4823 4824 4725 4823 4922 4923 4824 4922 5021 5022 4923 5021 5120 5121 5022 5120 5219 5220 5121 5219 5318 5319 5220 5318 5417 5418 5319 5417 5516 5517 5418 5516 5615 5616 5517 5615 5714 5715 5616 5714 5813 5814 5715 5813 5912 5913 5814 5912 6011 6012 5913 6011 6110 6111 6012 6110 6209 6210 6111 6209 6308 6309 6210 6308 6407 6408 6309 6407 6506 6507 6408 6506 6605 6606 6507 6605 6704 6705 6606 6704 6803 6804 6705 6803 6902 6903 6804 6902 7001 7002 6903 7001 7100 7101 7002 7100 7199 7200 7101 7199 7298 7299 7200 7298 7397 7398 7299 7397 7496 7497 7398 7496 7595 7596 7497 7595 7694 7695 7596 7694 7793 7794 7695 7793 7892 7893 7794 7892 7991 7992 7893 7991 8090 8091 7992 8090 8189 8190 8091 8189 8288 8289 8190 8288 8387 8388 8289 8387 8486 8487 8388 8486 8585 8586 8487 8585 8684 8685 8586 8684 8783 8784 8685 8783 8882 8883 8784 8882 8981 8982 8883 8981 9080 9081 8982 9080 9179 9180 9081 9179 9278 9279 9180 9278 9377 9378 9279 9377 9476 9477 9378 9476 9575 9576 9477 9575 9674 9675 9576 9674 9773 9774 9675 9773 9872 9873 9774 9872 9971 9972 9873 9971 10070 10071 9972 10070 10169 10170 10071 10169 10268 10269 10170 10268 10367 10368 10269 10367 10466 10467 10368 10466 10565 10566 10467 10565 10664 10665 10566 10664 10763 10764 10665 10763 10862 10863 10764 10862 10961 10962 10863 10961 11060 11061 10962 11060 11159 11160 11061 11159 11258 11259 11160 11258 11357 11358 11259 11357 11456 11457 11358 11456 11555 11556 11457 11555 11654 11655 11556 11654 11753 11754 11655 11753 11852 11853 11754 11852 11951 11952 11853 11951 12050 12051 11952 12050 12149 12150 12051 12149 12248 12249 12150 12248 12347 12348 12249 12347 12446 12447 12348 12446 12545 12546 12447 12545 12644 12645 12546 12644 12743 12744 12645 12743 12842 12843 12744 12842 12941 12942 12843 12941 13040 13041 12942 13040 13139 13140 13041 13139 13238 13239 13140 13238 13337 13338 13239 13337 13436 13437 13338 13436 13535 13536 13437 13535 13634 13635 13536 13634 13733 13734 13635 13733 13832 13833 13734 13832 13931 13932 13833 13931 14030 14031 13932 14030 14129 14130 14031 14129 14228 14229 14130 14228 14327 14328 14229 14327 14426 14427 14328 14426 14525 14526 14427 14525 14624 14625 14526 14624 14723 14724 14625 14723 14822 14823 14724 14822 14921 14922 14823 14921 15020 15021 14922 15020 15119 15120 15021 15119 619 620 15120 573 1953 1954 572 1953 2052 2053 1954 2052 2151 2152 2053 2151 2250 2251 2152 2250 2349 2350 2251 2349 2448 2449 2350 2448 2547 2548 2449 2547 2646 2647 2548 2646 2745 2746 2647 2745 2844 2845 2746 2844 2943 2944 2845 2943 3042 3043 2944 3042 3141 3142 3043 3141 3240 3241 3142 3240 3339 3340 3241 3339 3438 3439 3340 3438 3537 3538 3439 3537 3636 3637 3538 3636 3735 3736 3637 3735 3834 3835 3736 3834 3933 3934 3835 3933 4032 4033 3934 4032 4131 4132 4033 4131 4230 4231 4132 4230 4329 4330 4231 4329 4428 4429 4330 4428 4527 4528 4429 4527 4626 4627 4528 4626 4725 4726 4627 4725 4824 4825 4726 4824 4923 4924 4825 4923 5022 5023 4924 5022 5121 5122 5023 5121 5220 5221 5122 5220 5319 5320 5221 5319 5418 5419 5320 5418 5517 5518 5419 5517 5616 5617 5518 5616 5715 5716 5617 5715 5814 5815 5716 5814 5913 5914 5815 5913 6012 6013 5914 6012 6111 6112 6013 6111 6210 6211 6112 6210 6309 6310 6211 6309 6408 6409 6310 6408 6507 6508 6409 6507 6606 6607 6508 6606 6705 6706 6607 6705 6804 6805 6706 6804 6903 6904 6805 6903 7002 7003 6904 7002 7101 7102 7003 7101 7200 7201 7102 7200 7299 7300 7201 7299 7398 7399 7300 7398 7497 7498 7399 7497 7596 7597 7498 7596 7695 7696 7597 7695 7794 7795 7696 7794 7893 7894 7795 7893 7992 7993 7894 7992 8091 8092 7993 8091 8190 8191 8092 8190 8289 8290 8191 8289 8388 8389 8290 8388 8487 8488 8389 8487 8586 8587 8488 8586 8685 8686 8587 8685 8784 8785 8686 8784 8883 8884 8785 8883 8982 8983 8884 8982 9081 9082 8983 9081 9180 9181 9082 9180 9279 9280 9181 9279 9378 9379 9280 9378 9477 9478 9379 9477 9576 9577 9478 9576 9675 9676 9577 9675 9774 9775 9676 9774 9873 9874 9775 9873 9972 9973 9874 9972 10071 10072 9973 10071 10170 10171 10072 10170 10269 10270 10171 10269 10368 10369 10270 10368 10467 10468 10369 10467 10566 10567 10468 10566 10665 10666 10567 10665 10764 10765 10666 10764 10863 10864 10765 10863 10962 10963 10864 10962 11061 11062 10963 11061 11160 11161 11062 11160 11259 11260 11161 11259 11358 11359 11260 11358 11457 11458 11359 11457 11556 11557 11458 11556 11655 11656 11557 11655 11754 11755 11656 11754 11853 11854 11755 11853 11952 11953 11854 11952 12051 12052 11953 12051 12150 12151 12052 12150 12249 12250 12151 12249 12348 12349 12250 12348 12447 12448 12349 12447 12546 12547 12448 12546 12645 12646 12547 12645 12744 12745 12646 12744 12843 12844 12745 12843 12942 12943 12844 12942 13041 13042 12943 13041 13140 13141 13042 13140 13239 13240 13141 13239 13338 13339 13240 13338 13437 13438 13339 13437 13536 13537 13438 13536 13635 13636 13537 13635 13734 13735 13636 13734 13833 13834 13735 13833 13932 13933 13834 13932 14031 14032 13933 14031 14130 14131 14032 14130 14229 14230 14131 14229 14328 14329 14230 14328 14427 14428 14329 14427 14526 14527 14428 14526 14625 14626 14527 14625 14724 14725 14626 14724 14823 14824 14725 14823 14922 14923 14824 14922 15021 15022 14923 15021 15120 15121 15022 15120 620 621 15121 572 1954 1955 571 1954 2053 2054 1955 2053 2152 2153 2054 2152 2251 2252 2153 2251 2350 2351 2252 2350 2449 2450 2351 2449 2548 2549 2450 2548 2647 2648 2549 2647 2746 2747 2648 2746 2845 2846 2747 2845 2944 2945 2846 2944 3043 3044 2945 3043 3142 3143 3044 3142 3241 3242 3143 3241 3340 3341 3242 3340 3439 3440 3341 3439 3538 3539 3440 3538 3637 3638 3539 3637 3736 3737 3638 3736 3835 3836 3737 3835 3934 3935 3836 3934 4033 4034 3935 4033 4132 4133 4034 4132 4231 4232 4133 4231 4330 4331 4232 4330 4429 4430 4331 4429 4528 4529 4430 4528 4627 4628 4529 4627 4726 4727 4628 4726 4825 4826 4727 4825 4924 4925 4826 4924 5023 5024 4925 5023 5122 5123 5024 5122 5221 5222 5123 5221 5320 5321 5222 5320 5419 5420 5321 5419 5518 5519 5420 5518 5617 5618 5519 5617 5716 5717 5618 5716 5815 5816 5717 5815 5914 5915 5816 5914 6013 6014 5915 6013 6112 6113 6014 6112 6211 6212 6113 6211 6310 6311 6212 6310 6409 6410 6311 6409 6508 6509 6410 6508 6607 6608 6509 6607 6706 6707 6608 6706 6805 6806 6707 6805 6904 6905 6806 6904 7003 7004 6905 7003 7102 7103 7004 7102 7201 7202 7103 7201 7300 7301 7202 7300 7399 7400 7301 7399 7498 7499 7400 7498 7597 7598 7499 7597 7696 7697 7598 7696 7795 7796 7697 7795 7894 7895 7796 7894 7993 7994 7895 7993 8092 8093 7994 8092 8191 8192 8093 8191 8290 8291 8192 8290 8389 8390 8291 8389 8488 8489 8390 8488 8587 8588 8489 8587 8686 8687 8588 8686 8785 8786 8687 8785 8884 8885 8786 8884 8983 8984 8885 8983 9082 9083 8984 9082 9181 9182 9083 9181 9280 9281 9182 9280 9379 9380 9281 9379 9478 9479 9380 9478 9577 9578 9479 9577 9676 9677 9578 9676 9775 9776 9677 9775 9874 9875 9776 9874 9973 9974 9875 9973 10072 10073 9974 10072 10171 10172 10073 10171 10270 10271 10172 10270 10369 10370 10271 10369 10468 10469 10370 10468 10567 10568 10469 10567 10666 10667 10568 10666 10765 10766 10667 10765 10864 10865 10766 10864 10963 10964 10865 10963 11062 11063 10964 11062 11161 11162 11063 11161 11260 11261 11162 11260 11359 11360 11261 11359 11458 11459 11360 11458 11557 11558 11459 11557 11656 11657 11558 11656 11755 11756 11657 11755 11854 11855 11756 11854 11953 11954 11855 11953 12052 12053 11954 12052 12151 12152 12053 12151 12250 12251 12152 12250 12349 12350 12251 12349 12448 12449 12350 12448 12547 12548 12449 12547 12646 12647 12548 12646 12745 12746 12647 12745 12844 12845 12746 12844 12943 12944 12845 12943 13042 13043 12944 13042 13141 13142 13043 13141 13240 13241 13142 13240 13339 13340 13241 13339 13438 13439 13340 13438 13537 13538 13439 13537 13636 13637 13538 13636 13735 13736 13637 13735 13834 13835 13736 13834 13933 13934 13835 13933 14032 14033 13934 14032 14131 14132 14033 14131 14230 14231 14132 14230 14329 14330 14231 14329 14428 14429 14330 14428 14527 14528 14429 14527 14626 14627 14528 14626 14725 14726 14627 14725 14824 14825 14726 14824 14923 14924 14825 14923 15022 15023 14924 15022 15121 15122 15023 15121 621 622 15122 571 1955 1956 570 1955 2054 2055 1956 2054 2153 2154 2055 2153 2252 2253 2154 2252 2351 2352 2253 2351 2450 2451 2352 2450 2549 2550 2451 2549 2648 2649 2550 2648 2747 2748 2649 2747 2846 2847 2748 2846 2945 2946 2847 2945 3044 3045 2946 3044 3143 3144 3045 3143 3242 3243 3144 3242 3341 3342 3243 3341 3440 3441 3342 3440 3539 3540 3441 3539 3638 3639 3540 3638 3737 3738 3639 3737 3836 3837 3738 3836 3935 3936 3837 3935 4034 4035 3936 4034 4133 4134 4035 4133 4232 4233 4134 4232 4331 4332 4233 4331 4430 4431 4332 4430 4529 4530 4431 4529 4628 4629 4530 4628 4727 4728 4629 4727 4826 4827 4728 4826 4925 4926 4827 4925 5024 5025 4926 5024 5123 5124 5025 5123 5222 5223 5124 5222 5321 5322 5223 5321 5420 5421 5322 5420 5519 5520 5421 5519 5618 5619 5520 5618 5717 5718 5619 5717 5816 5817 5718 5816 5915 5916 5817 5915 6014 6015 5916 6014 6113 6114 6015 6113 6212 6213 6114 6212 6311 6312 6213 6311 6410 6411 6312 6410 6509 6510 6411 6509 6608 6609 6510 6608 6707 6708 6609 6707 6806 6807 6708 6806 6905 6906 6807 6905 7004 7005 6906 7004 7103 7104 7005 7103 7202 7203 7104 7202 7301 7302 7203 7301 7400 7401 7302 7400 7499 7500 7401 7499 7598 7599 7500 7598 7697 7698 7599 7697 7796 7797 7698 7796 7895 7896 7797 7895 7994 7995 7896 7994 8093 8094 7995 8093 8192 8193 8094 8192 8291 8292 8193 8291 8390 8391 8292 8390 8489 8490 8391 8489 8588 8589 8490 8588 8687 8688 8589 8687 8786 8787 8688 8786 8885 8886 8787 8885 8984 8985 8886 8984 9083 9084 8985 9083 9182 9183 9084 9182 9281 9282 9183 9281 9380 9381 9282 9380 9479 9480 9381 9479 9578 9579 9480 9578 9677 9678 9579 9677 9776 9777 9678 9776 9875 9876 9777 9875 9974 9975 9876 9974 10073 10074 9975 10073 10172 10173 10074 10172 10271 10272 10173 10271 10370 10371 10272 10370 10469 10470 10371 10469 10568 10569 10470 10568 10667 10668 10569 10667 10766 10767 10668 10766 10865 10866 10767 10865 10964 10965 10866 10964 11063 11064 10965 11063 11162 11163 11064 11162 11261 11262 11163 11261 11360 11361 11262 11360 11459 11460 11361 11459 11558 11559 11460 11558 11657 11658 11559 11657 11756 11757 11658 11756 11855 11856 11757 11855 11954 11955 11856 11954 12053 12054 11955 12053 12152 12153 12054 12152 12251 12252 12153 12251 12350 12351 12252 12350 12449 12450 12351 12449 12548 12549 12450 12548 12647 12648 12549 12647 12746 12747 12648 12746 12845 12846 12747 12845 12944 12945 12846 12944 13043 13044 12945 13043 13142 13143 13044 13142 13241 13242 13143 13241 13340 13341 13242 13340 13439 13440 13341 13439 13538 13539 13440 13538 13637 13638 13539 13637 13736 13737 13638 13736 13835 13836 13737 13835 13934 13935 13836 13934 14033 14034 13935 14033 14132 14133 14034 14132 14231 14232 14133 14231 14330 14331 14232 14330 14429 14430 14331 14429 14528 14529 14430 14528 14627 14628 14529 14627 14726 14727 14628 14726 14825 14826 14727 14825 14924 14925 14826 14924 15023 15024 14925 15023 15122 15123 15024 15122 622 623 15123 570 1956 1957 569 1956 2055 2056 1957 2055 2154 2155 2056 2154 2253 2254 2155 2253 2352 2353 2254 2352 2451 2452 2353 2451 2550 2551 2452 2550 2649 2650 2551 2649 2748 2749 2650 2748 2847 2848 2749 2847 2946 2947 2848 2946 3045 3046 2947 3045 3144 3145 3046 3144 3243 3244 3145 3243 3342 3343 3244 3342 3441 3442 3343 3441 3540 3541 3442 3540 3639 3640 3541 3639 3738 3739 3640 3738 3837 3838 3739 3837 3936 3937 3838 3936 4035 4036 3937 4035 4134 4135 4036 4134 4233 4234 4135 4233 4332 4333 4234 4332 4431 4432 4333 4431 4530 4531 4432 4530 4629 4630 4531 4629 4728 4729 4630 4728 4827 4828 4729 4827 4926 4927 4828 4926 5025 5026 4927 5025 5124 5125 5026 5124 5223 5224 5125 5223 5322 5323 5224 5322 5421 5422 5323 5421 5520 5521 5422 5520 5619 5620 5521 5619 5718 5719 5620 5718 5817 5818 5719 5817 5916 5917 5818 5916 6015 6016 5917 6015 6114 6115 6016 6114 6213 6214 6115 6213 6312 6313 6214 6312 6411 6412 6313 6411 6510 6511 6412 6510 6609 6610 6511 6609 6708 6709 6610 6708 6807 6808 6709 6807 6906 6907 6808 6906 7005 7006 6907 7005 7104 7105 7006 7104 7203 7204 7105 7203 7302 7303 7204 7302 7401 7402 7303 7401 7500 7501 7402 7500 7599 7600 7501 7599 7698 7699 7600 7698 7797 7798 7699 7797 7896 7897 7798 7896 7995 7996 7897 7995 8094 8095 7996 8094 8193 8194 8095 8193 8292 8293 8194 8292 8391 8392 8293 8391 8490 8491 8392 8490 8589 8590 8491 8589 8688 8689 8590 8688 8787 8788 8689 8787 8886 8887 8788 8886 8985 8986 8887 8985 9084 9085 8986 9084 9183 9184 9085 9183 9282 9283 9184 9282 9381 9382 9283 9381 9480 9481 9382 9480 9579 9580 9481 9579 9678 9679 9580 9678 9777 9778 9679 9777 9876 9877 9778 9876 9975 9976 9877 9975 10074 10075 9976 10074 10173 10174 10075 10173 10272 10273 10174 10272 10371 10372 10273 10371 10470 10471 10372 10470 10569 10570 10471 10569 10668 10669 10570 10668 10767 10768 10669 10767 10866 10867 10768 10866 10965 10966 10867 10965 11064 11065 10966 11064 11163 11164 11065 11163 11262 11263 11164 11262 11361 11362 11263 11361 11460 11461 11362 11460 11559 11560 11461 11559 11658 11659 11560 11658 11757 11758 11659 11757 11856 11857 11758 11856 11955 11956 11857 11955 12054 12055 11956 12054 12153 12154 12055 12153 12252 12253 12154 12252 12351 12352 12253 12351 12450 12451 12352 12450 12549 12550 12451 12549 12648 12649 12550 12648 12747 12748 12649 12747 12846 12847 12748 12846 12945 12946 12847 12945 13044 13045 12946 13044 13143 13144 13045 13143 13242 13243 13144 13242 13341 13342 13243 13341 13440 13441 13342 13440 13539 13540 13441 13539 13638 13639 13540 13638 13737 13738 13639 13737 13836 13837 13738 13836 13935 13936 13837 13935 14034 14035 13936 14034 14133 14134 14035 14133 14232 14233 14134 14232 14331 14332 14233 14331 14430 14431 14332 14430 14529 14530 14431 14529 14628 14629 14530 14628 14727 14728 14629 14727 14826 14827 14728 14826 14925 14926 14827 14925 15024 15025 14926 15024 15123 15124 15025 15123 623 624 15124 569 1957 1958 568 1957 2056 2057 1958 2056 2155 2156 2057 2155 2254 2255 2156 2254 2353 2354 2255 2353 2452 2453 2354 2452 2551 2552 2453 2551 2650 2651 2552 2650 2749 2750 2651 2749 2848 2849 2750 2848 2947 2948 2849 2947 3046 3047 2948 3046 3145 3146 3047 3145 3244 3245 3146 3244 3343 3344 3245 3343 3442 3443 3344 3442 3541 3542 3443 3541 3640 3641 3542 3640 3739 3740 3641 3739 3838 3839 3740 3838 3937 3938 3839 3937 4036 4037 3938 4036 4135 4136 4037 4135 4234 4235 4136 4234 4333 4334 4235 4333 4432 4433 4334 4432 4531 4532 4433 4531 4630 4631 4532 4630 4729 4730 4631 4729 4828 4829 4730 4828 4927 4928 4829 4927 5026 5027 4928 5026 5125 5126 5027 5125 5224 5225 5126 5224 5323 5324 5225 5323 5422 5423 5324 5422 5521 5522 5423 5521 5620 5621 5522 5620 5719 5720 5621 5719 5818 5819 5720 5818 5917 5918 5819 5917 6016 6017 5918 6016 6115 6116 6017 6115 6214 6215 6116 6214 6313 6314 6215 6313 6412 6413 6314 6412 6511 6512 6413 6511 6610 6611 6512 6610 6709 6710 6611 6709 6808 6809 6710 6808 6907 6908 6809 6907 7006 7007 6908 7006 7105 7106 7007 7105 7204 7205 7106 7204 7303 7304 7205 7303 7402 7403 7304 7402 7501 7502 7403 7501 7600 7601 7502 7600 7699 7700 7601 7699 7798 7799 7700 7798 7897 7898 7799 7897 7996 7997 7898 7996 8095 8096 7997 8095 8194 8195 8096 8194 8293 8294 8195 8293 8392 8393 8294 8392 8491 8492 8393 8491 8590 8591 8492 8590 8689 8690 8591 8689 8788 8789 8690 8788 8887 8888 8789 8887 8986 8987 8888 8986 9085 9086 8987 9085 9184 9185 9086 9184 9283 9284 9185 9283 9382 9383 9284 9382 9481 9482 9383 9481 9580 9581 9482 9580 9679 9680 9581 9679 9778 9779 9680 9778 9877 9878 9779 9877 9976 9977 9878 9976 10075 10076 9977 10075 10174 10175 10076 10174 10273 10274 10175 10273 10372 10373 10274 10372 10471 10472 10373 10471 10570 10571 10472 10570 10669 10670 10571 10669 10768 10769 10670 10768 10867 10868 10769 10867 10966 10967 10868 10966 11065 11066 10967 11065 11164 11165 11066 11164 11263 11264 11165 11263 11362 11363 11264 11362 11461 11462 11363 11461 11560 11561 11462 11560 11659 11660 11561 11659 11758 11759 11660 11758 11857 11858 11759 11857 11956 11957 11858 11956 12055 12056 11957 12055 12154 12155 12056 12154 12253 12254 12155 12253 12352 12353 12254 12352 12451 12452 12353 12451 12550 12551 12452 12550 12649 12650 12551 12649 12748 12749 12650 12748 12847 12848 12749 12847 12946 12947 12848 12946 13045 13046 12947 13045 13144 13145 13046 13144 13243 13244 13145 13243 13342 13343 13244 13342 13441 13442 13343 13441 13540 13541 13442 13540 13639 13640 13541 13639 13738 13739 13640 13738 13837 13838 13739 13837 13936 13937 13838 13936 14035 14036 13937 14035 14134 14135 14036 14134 14233 14234 14135 14233 14332 14333 14234 14332 14431 14432 14333 14431 14530 14531 14432 14530 14629 14630 14531 14629 14728 14729 14630 14728 14827 14828 14729 14827 14926 14927 14828 14926 15025 15026 14927 15025 15124 15125 15026 15124 624 625 15125 568 1958 1959 567 1958 2057 2058 1959 2057 2156 2157 2058 2156 2255 2256 2157 2255 2354 2355 2256 2354 2453 2454 2355 2453 2552 2553 2454 2552 2651 2652 2553 2651 2750 2751 2652 2750 2849 2850 2751 2849 2948 2949 2850 2948 3047 3048 2949 3047 3146 3147 3048 3146 3245 3246 3147 3245 3344 3345 3246 3344 3443 3444 3345 3443 3542 3543 3444 3542 3641 3642 3543 3641 3740 3741 3642 3740 3839 3840 3741 3839 3938 3939 3840 3938 4037 4038 3939 4037 4136 4137 4038 4136 4235 4236 4137 4235 4334 4335 4236 4334 4433 4434 4335 4433 4532 4533 4434 4532 4631 4632 4533 4631 4730 4731 4632 4730 4829 4830 4731 4829 4928 4929 4830 4928 5027 5028 4929 5027 5126 5127 5028 5126 5225 5226 5127 5225 5324 5325 5226 5324 5423 5424 5325 5423 5522 5523 5424 5522 5621 5622 5523 5621 5720 5721 5622 5720 5819 5820 5721 5819 5918 5919 5820 5918 6017 6018 5919 6017 6116 6117 6018 6116 6215 6216 6117 6215 6314 6315 6216 6314 6413 6414 6315 6413 6512 6513 6414 6512 6611 6612 6513 6611 6710 6711 6612 6710 6809 6810 6711 6809 6908 6909 6810 6908 7007 7008 6909 7007 7106 7107 7008 7106 7205 7206 7107 7205 7304 7305 7206 7304 7403 7404 7305 7403 7502 7503 7404 7502 7601 7602 7503 7601 7700 7701 7602 7700 7799 7800 7701 7799 7898 7899 7800 7898 7997 7998 7899 7997 8096 8097 7998 8096 8195 8196 8097 8195 8294 8295 8196 8294 8393 8394 8295 8393 8492 8493 8394 8492 8591 8592 8493 8591 8690 8691 8592 8690 8789 8790 8691 8789 8888 8889 8790 8888 8987 8988 8889 8987 9086 9087 8988 9086 9185 9186 9087 9185 9284 9285 9186 9284 9383 9384 9285 9383 9482 9483 9384 9482 9581 9582 9483 9581 9680 9681 9582 9680 9779 9780 9681 9779 9878 9879 9780 9878 9977 9978 9879 9977 10076 10077 9978 10076 10175 10176 10077 10175 10274 10275 10176 10274 10373 10374 10275 10373 10472 10473 10374 10472 10571 10572 10473 10571 10670 10671 10572 10670 10769 10770 10671 10769 10868 10869 10770 10868 10967 10968 10869 10967 11066 11067 10968 11066 11165 11166 11067 11165 11264 11265 11166 11264 11363 11364 11265 11363 11462 11463 11364 11462 11561 11562 11463 11561 11660 11661 11562 11660 11759 11760 11661 11759 11858 11859 11760 11858 11957 11958 11859 11957 12056 12057 11958 12056 12155 12156 12057 12155 12254 12255 12156 12254 12353 12354 12255 12353 12452 12453 12354 12452 12551 12552 12453 12551 12650 12651 12552 12650 12749 12750 12651 12749 12848 12849 12750 12848 12947 12948 12849 12947 13046 13047 12948 13046 13145 13146 13047 13145 13244 13245 13146 13244 13343 13344 13245 13343 13442 13443 13344 13442 13541 13542 13443 13541 13640 13641 13542 13640 13739 13740 13641 13739 13838 13839 13740 13838 13937 13938 13839 13937 14036 14037 13938 14036 14135 14136 14037 14135 14234 14235 14136 14234 14333 14334 14235 14333 14432 14433 14334 14432 14531 14532 14433 14531 14630 14631 14532 14630 14729 14730 14631 14729 14828 14829 14730 14828 14927 14928 14829 14927 15026 15027 14928 15026 15125 15126 15027 15125 625 626 15126 567 1959 1960 566 1959 2058 2059 1960 2058 2157 2158 2059 2157 2256 2257 2158 2256 2355 2356 2257 2355 2454 2455 2356 2454 2553 2554 2455 2553 2652 2653 2554 2652 2751 2752 2653 2751 2850 2851 2752 2850 2949 2950 2851 2949 3048 3049 2950 3048 3147 3148 3049 3147 3246 3247 3148 3246 3345 3346 3247 3345 3444 3445 3346 3444 3543 3544 3445 3543 3642 3643 3544 3642 3741 3742 3643 3741 3840 3841 3742 3840 3939 3940 3841 3939 4038 4039 3940 4038 4137 4138 4039 4137 4236 4237 4138 4236 4335 4336 4237 4335 4434 4435 4336 4434 4533 4534 4435 4533 4632 4633 4534 4632 4731 4732 4633 4731 4830 4831 4732 4830 4929 4930 4831 4929 5028 5029 4930 5028 5127 5128 5029 5127 5226 5227 5128 5226 5325 5326 5227 5325 5424 5425 5326 5424 5523 5524 5425 5523 5622 5623 5524 5622 5721 5722 5623 5721 5820 5821 5722 5820 5919 5920 5821 5919 6018 6019 5920 6018 6117 6118 6019 6117 6216 6217 6118 6216 6315 6316 6217 6315 6414 6415 6316 6414 6513 6514 6415 6513 6612 6613 6514 6612 6711 6712 6613 6711 6810 6811 6712 6810 6909 6910 6811 6909 7008 7009 6910 7008 7107 7108 7009 7107 7206 7207 7108 7206 7305 7306 7207 7305 7404 7405 7306 7404 7503 7504 7405 7503 7602 7603 7504 7602 7701 7702 7603 7701 7800 7801 7702 7800 7899 7900 7801 7899 7998 7999 7900 7998 8097 8098 7999 8097 8196 8197 8098 8196 8295 8296 8197 8295 8394 8395 8296 8394 8493 8494 8395 8493 8592 8593 8494 8592 8691 8692 8593 8691 8790 8791 8692 8790 8889 8890 8791 8889 8988 8989 8890 8988 9087 9088 8989 9087 9186 9187 9088 9186 9285 9286 9187 9285 9384 9385 9286 9384 9483 9484 9385 9483 9582 9583 9484 9582 9681 9682 9583 9681 9780 9781 9682 9780 9879 9880 9781 9879 9978 9979 9880 9978 10077 10078 9979 10077 10176 10177 10078 10176 10275 10276 10177 10275 10374 10375 10276 10374 10473 10474 10375 10473 10572 10573 10474 10572 10671 10672 10573 10671 10770 10771 10672 10770 10869 10870 10771 10869 10968 10969 10870 10968 11067 11068 10969 11067 11166 11167 11068 11166 11265 11266 11167 11265 11364 11365 11266 11364 11463 11464 11365 11463 11562 11563 11464 11562 11661 11662 11563 11661 11760 11761 11662 11760 11859 11860 11761 11859 11958 11959 11860 11958 12057 12058 11959 12057 12156 12157 12058 12156 12255 12256 12157 12255 12354 12355 12256 12354 12453 12454 12355 12453 12552 12553 12454 12552 12651 12652 12553 12651 12750 12751 12652 12750 12849 12850 12751 12849 12948 12949 12850 12948 13047 13048 12949 13047 13146 13147 13048 13146 13245 13246 13147 13245 13344 13345 13246 13344 13443 13444 13345 13443 13542 13543 13444 13542 13641 13642 13543 13641 13740 13741 13642 13740 13839 13840 13741 13839 13938 13939 13840 13938 14037 14038 13939 14037 14136 14137 14038 14136 14235 14236 14137 14235 14334 14335 14236 14334 14433 14434 14335 14433 14532 14533 14434 14532 14631 14632 14533 14631 14730 14731 14632 14730 14829 14830 14731 14829 14928 14929 14830 14928 15027 15028 14929 15027 15126 15127 15028 15126 626 627 15127 566 1960 1961 565 1960 2059 2060 1961 2059 2158 2159 2060 2158 2257 2258 2159 2257 2356 2357 2258 2356 2455 2456 2357 2455 2554 2555 2456 2554 2653 2654 2555 2653 2752 2753 2654 2752 2851 2852 2753 2851 2950 2951 2852 2950 3049 3050 2951 3049 3148 3149 3050 3148 3247 3248 3149 3247 3346 3347 3248 3346 3445 3446 3347 3445 3544 3545 3446 3544 3643 3644 3545 3643 3742 3743 3644 3742 3841 3842 3743 3841 3940 3941 3842 3940 4039 4040 3941 4039 4138 4139 4040 4138 4237 4238 4139 4237 4336 4337 4238 4336 4435 4436 4337 4435 4534 4535 4436 4534 4633 4634 4535 4633 4732 4733 4634 4732 4831 4832 4733 4831 4930 4931 4832 4930 5029 5030 4931 5029 5128 5129 5030 5128 5227 5228 5129 5227 5326 5327 5228 5326 5425 5426 5327 5425 5524 5525 5426 5524 5623 5624 5525 5623 5722 5723 5624 5722 5821 5822 5723 5821 5920 5921 5822 5920 6019 6020 5921 6019 6118 6119 6020 6118 6217 6218 6119 6217 6316 6317 6218 6316 6415 6416 6317 6415 6514 6515 6416 6514 6613 6614 6515 6613 6712 6713 6614 6712 6811 6812 6713 6811 6910 6911 6812 6910 7009 7010 6911 7009 7108 7109 7010 7108 7207 7208 7109 7207 7306 7307 7208 7306 7405 7406 7307 7405 7504 7505 7406 7504 7603 7604 7505 7603 7702 7703 7604 7702 7801 7802 7703 7801 7900 7901 7802 7900 7999 8000 7901 7999 8098 8099 8000 8098 8197 8198 8099 8197 8296 8297 8198 8296 8395 8396 8297 8395 8494 8495 8396 8494 8593 8594 8495 8593 8692 8693 8594 8692 8791 8792 8693 8791 8890 8891 8792 8890 8989 8990 8891 8989 9088 9089 8990 9088 9187 9188 9089 9187 9286 9287 9188 9286 9385 9386 9287 9385 9484 9485 9386 9484 9583 9584 9485 9583 9682 9683 9584 9682 9781 9782 9683 9781 9880 9881 9782 9880 9979 9980 9881 9979 10078 10079 9980 10078 10177 10178 10079 10177 10276 10277 10178 10276 10375 10376 10277 10375 10474 10475 10376 10474 10573 10574 10475 10573 10672 10673 10574 10672 10771 10772 10673 10771 10870 10871 10772 10870 10969 10970 10871 10969 11068 11069 10970 11068 11167 11168 11069 11167 11266 11267 11168 11266 11365 11366 11267 11365 11464 11465 11366 11464 11563 11564 11465 11563 11662 11663 11564 11662 11761 11762 11663 11761 11860 11861 11762 11860 11959 11960 11861 11959 12058 12059 11960 12058 12157 12158 12059 12157 12256 12257 12158 12256 12355 12356 12257 12355 12454 12455 12356 12454 12553 12554 12455 12553 12652 12653 12554 12652 12751 12752 12653 12751 12850 12851 12752 12850 12949 12950 12851 12949 13048 13049 12950 13048 13147 13148 13049 13147 13246 13247 13148 13246 13345 13346 13247 13345 13444 13445 13346 13444 13543 13544 13445 13543 13642 13643 13544 13642 13741 13742 13643 13741 13840 13841 13742 13840 13939 13940 13841 13939 14038 14039 13940 14038 14137 14138 14039 14137 14236 14237 14138 14236 14335 14336 14237 14335 14434 14435 14336 14434 14533 14534 14435 14533 14632 14633 14534 14632 14731 14732 14633 14731 14830 14831 14732 14830 14929 14930 14831 14929 15028 15029 14930 15028 15127 15128 15029 15127 627 628 15128 565 1961 1962 564 1961 2060 2061 1962 2060 2159 2160 2061 2159 2258 2259 2160 2258 2357 2358 2259 2357 2456 2457 2358 2456 2555 2556 2457 2555 2654 2655 2556 2654 2753 2754 2655 2753 2852 2853 2754 2852 2951 2952 2853 2951 3050 3051 2952 3050 3149 3150 3051 3149 3248 3249 3150 3248 3347 3348 3249 3347 3446 3447 3348 3446 3545 3546 3447 3545 3644 3645 3546 3644 3743 3744 3645 3743 3842 3843 3744 3842 3941 3942 3843 3941 4040 4041 3942 4040 4139 4140 4041 4139 4238 4239 4140 4238 4337 4338 4239 4337 4436 4437 4338 4436 4535 4536 4437 4535 4634 4635 4536 4634 4733 4734 4635 4733 4832 4833 4734 4832 4931 4932 4833 4931 5030 5031 4932 5030 5129 5130 5031 5129 5228 5229 5130 5228 5327 5328 5229 5327 5426 5427 5328 5426 5525 5526 5427 5525 5624 5625 5526 5624 5723 5724 5625 5723 5822 5823 5724 5822 5921 5922 5823 5921 6020 6021 5922 6020 6119 6120 6021 6119 6218 6219 6120 6218 6317 6318 6219 6317 6416 6417 6318 6416 6515 6516 6417 6515 6614 6615 6516 6614 6713 6714 6615 6713 6812 6813 6714 6812 6911 6912 6813 6911 7010 7011 6912 7010 7109 7110 7011 7109 7208 7209 7110 7208 7307 7308 7209 7307 7406 7407 7308 7406 7505 7506 7407 7505 7604 7605 7506 7604 7703 7704 7605 7703 7802 7803 7704 7802 7901 7902 7803 7901 8000 8001 7902 8000 8099 8100 8001 8099 8198 8199 8100 8198 8297 8298 8199 8297 8396 8397 8298 8396 8495 8496 8397 8495 8594 8595 8496 8594 8693 8694 8595 8693 8792 8793 8694 8792 8891 8892 8793 8891 8990 8991 8892 8990 9089 9090 8991 9089 9188 9189 9090 9188 9287 9288 9189 9287 9386 9387 9288 9386 9485 9486 9387 9485 9584 9585 9486 9584 9683 9684 9585 9683 9782 9783 9684 9782 9881 9882 9783 9881 9980 9981 9882 9980 10079 10080 9981 10079 10178 10179 10080 10178 10277 10278 10179 10277 10376 10377 10278 10376 10475 10476 10377 10475 10574 10575 10476 10574 10673 10674 10575 10673 10772 10773 10674 10772 10871 10872 10773 10871 10970 10971 10872 10970 11069 11070 10971 11069 11168 11169 11070 11168 11267 11268 11169 11267 11366 11367 11268 11366 11465 11466 11367 11465 11564 11565 11466 11564 11663 11664 11565 11663 11762 11763 11664 11762 11861 11862 11763 11861 11960 11961 11862 11960 12059 12060 11961 12059 12158 12159 12060 12158 12257 12258 12159 12257 12356 12357 12258 12356 12455 12456 12357 12455 12554 12555 12456 12554 12653 12654 12555 12653 12752 12753 12654 12752 12851 12852 12753 12851 12950 12951 12852 12950 13049 13050 12951 13049 13148 13149 13050 13148 13247 13248 13149 13247 13346 13347 13248 13346 13445 13446 13347 13445 13544 13545 13446 13544 13643 13644 13545 13643 13742 13743 13644 13742 13841 13842 13743 13841 13940 13941 13842 13940 14039 14040 13941 14039 14138 14139 14040 14138 14237 14238 14139 14237 14336 14337 14238 14336 14435 14436 14337 14435 14534 14535 14436 14534 14633 14634 14535 14633 14732 14733 14634 14732 14831 14832 14733 14831 14930 14931 14832 14930 15029 15030 14931 15029 15128 15129 15030 15128 628 629 15129 564 1962 1963 563 1962 2061 2062 1963 2061 2160 2161 2062 2160 2259 2260 2161 2259 2358 2359 2260 2358 2457 2458 2359 2457 2556 2557 2458 2556 2655 2656 2557 2655 2754 2755 2656 2754 2853 2854 2755 2853 2952 2953 2854 2952 3051 3052 2953 3051 3150 3151 3052 3150 3249 3250 3151 3249 3348 3349 3250 3348 3447 3448 3349 3447 3546 3547 3448 3546 3645 3646 3547 3645 3744 3745 3646 3744 3843 3844 3745 3843 3942 3943 3844 3942 4041 4042 3943 4041 4140 4141 4042 4140 4239 4240 4141 4239 4338 4339 4240 4338 4437 4438 4339 4437 4536 4537 4438 4536 4635 4636 4537 4635 4734 4735 4636 4734 4833 4834 4735 4833 4932 4933 4834 4932 5031 5032 4933 5031 5130 5131 5032 5130 5229 5230 5131 5229 5328 5329 5230 5328 5427 5428 5329 5427 5526 5527 5428 5526 5625 5626 5527 5625 5724 5725 5626 5724 5823 5824 5725 5823 5922 5923 5824 5922 6021 6022 5923 6021 6120 6121 6022 6120 6219 6220 6121 6219 6318 6319 6220 6318 6417 6418 6319 6417 6516 6517 6418 6516 6615 6616 6517 6615 6714 6715 6616 6714 6813 6814 6715 6813 6912 6913 6814 6912 7011 7012 6913 7011 7110 7111 7012 7110 7209 7210 7111 7209 7308 7309 7210 7308 7407 7408 7309 7407 7506 7507 7408 7506 7605 7606 7507 7605 7704 7705 7606 7704 7803 7804 7705 7803 7902 7903 7804 7902 8001 8002 7903 8001 8100 8101 8002 8100 8199 8200 8101 8199 8298 8299 8200 8298 8397 8398 8299 8397 8496 8497 8398 8496 8595 8596 8497 8595 8694 8695 8596 8694 8793 8794 8695 8793 8892 8893 8794 8892 8991 8992 8893 8991 9090 9091 8992 9090 9189 9190 9091 9189 9288 9289 9190 9288 9387 9388 9289 9387 9486 9487 9388 9486 9585 9586 9487 9585 9684 9685 9586 9684 9783 9784 9685 9783 9882 9883 9784 9882 9981 9982 9883 9981 10080 10081 9982 10080 10179 10180 10081 10179 10278 10279 10180 10278 10377 10378 10279 10377 10476 10477 10378 10476 10575 10576 10477 10575 10674 10675 10576 10674 10773 10774 10675 10773 10872 10873 10774 10872 10971 10972 10873 10971 11070 11071 10972 11070 11169 11170 11071 11169 11268 11269 11170 11268 11367 11368 11269 11367 11466 11467 11368 11466 11565 11566 11467 11565 11664 11665 11566 11664 11763 11764 11665 11763 11862 11863 11764 11862 11961 11962 11863 11961 12060 12061 11962 12060 12159 12160 12061 12159 12258 12259 12160 12258 12357 12358 12259 12357 12456 12457 12358 12456 12555 12556 12457 12555 12654 12655 12556 12654 12753 12754 12655 12753 12852 12853 12754 12852 12951 12952 12853 12951 13050 13051 12952 13050 13149 13150 13051 13149 13248 13249 13150 13248 13347 13348 13249 13347 13446 13447 13348 13446 13545 13546 13447 13545 13644 13645 13546 13644 13743 13744 13645 13743 13842 13843 13744 13842 13941 13942 13843 13941 14040 14041 13942 14040 14139 14140 14041 14139 14238 14239 14140 14238 14337 14338 14239 14337 14436 14437 14338 14436 14535 14536 14437 14535 14634 14635 14536 14634 14733 14734 14635 14733 14832 14833 14734 14832 14931 14932 14833 14931 15030 15031 14932 15030 15129 15130 15031 15129 629 630 15130 563 1963 151 12 1963 2062 150 151 2062 2161 149 150 2161 2260 148 149 2260 2359 147 148 2359 2458 146 147 2458 2557 145 146 2557 2656 144 145 2656 2755 143 144 2755 2854 142 143 2854 2953 141 142 2953 3052 140 141 3052 3151 139 140 3151 3250 138 139 3250 3349 137 138 3349 3448 136 137 3448 3547 135 136 3547 3646 134 135 3646 3745 133 134 3745 3844 132 133 3844 3943 131 132 3943 4042 130 131 4042 4141 129 130 4141 4240 128 129 4240 4339 127 128 4339 4438 126 127 4438 4537 125 126 4537 4636 124 125 4636 4735 123 124 4735 4834 122 123 4834 4933 121 122 4933 5032 120 121 5032 5131 119 120 5131 5230 118 119 5230 5329 117 118 5329 5428 116 117 5428 5527 115 116 5527 5626 114 115 5626 5725 113 114 5725 5824 112 113 5824 5923 111 112 5923 6022 110 111 6022 6121 109 110 6121 6220 108 109 6220 6319 107 108 6319 6418 106 107 6418 6517 105 106 6517 6616 104 105 6616 6715 103 104 6715 6814 102 103 6814 6913 101 102 6913 7012 100 101 7012 7111 99 100 7111 7210 98 99 7210 7309 97 98 7309 7408 96 97 7408 7507 95 96 7507 7606 94 95 7606 7705 93 94 7705 7804 92 93 7804 7903 91 92 7903 8002 90 91 8002 8101 89 90 8101 8200 88 89 8200 8299 87 88 8299 8398 86 87 8398 8497 85 86 8497 8596 84 85 8596 8695 83 84 8695 8794 82 83 8794 8893 81 82 8893 8992 80 81 8992 9091 79 80 9091 9190 78 79 9190 9289 77 78 9289 9388 76 77 9388 9487 75 76 9487 9586 74 75 9586 9685 73 74 9685 9784 72 73 9784 9883 71 72 9883 9982 70 71 9982 10081 69 70 10081 10180 68 69 10180 10279 67 68 10279 10378 66 67 10378 10477 65 66 10477 10576 64 65 10576 10675 63 64 10675 10774 62 63 10774 10873 61 62 10873 10972 60 61 10972 11071 59 60 11071 11170 58 59 11170 11269 57 58 11269 11368 56 57 11368 11467 55 56 11467 11566 54 55 11566 11665 53 54 11665 11764 52 53 11764 11863 51 52 11863 11962 50 51 11962 12061 49 50 12061 12160 48 49 12160 12259 47 48 12259 12358 46 47 12358 12457 45 46 12457 12556 44 45 12556 12655 43 44 12655 12754 42 43 12754 12853 41 42 12853 12952 40 41 12952 13051 39 40 13051 13150 38 39 13150 13249 37 38 13249 13348 36 37 13348 13447 35 36 13447 13546 34 35 13546 13645 33 34 13645 13744 32 33 13744 13843 31 32 13843 13942 30 31 13942 14041 29 30 14041 14140 28 29 14140 14239 27 28 14239 14338 26 27 14338 14437 25 26 14437 14536 24 25 14536 14635 23 24 14635 14734 22 23 14734 14833 21 22 14833 14932 20 21 14932 15031 19 20 15031 15130 18 19 15130 630 11 18
</DataArray>
<DataArray Name="offsets" type="Int32" format="ascii" >
 4 8 12 16 20 24 28 32 36 40 44 48 52 56 60 64 68 72 76 80 84 88 92 96 100 104 108 112 116 120 124 128 132 136 140 144 148 152 156 160 164 168 172 176 180 184 188 192 196 200 204 208 212 216 220 224 228 232 236 240 244 248 252 256 260 264 268 272 276 280 284 288 292 296 300 304 308 312 316 320 324 328 332 336 340 344 348 352 356 360 364 368 372 376 380 384 388 392 396 400 404 408 412 416 420 424 428 432 436 440 444 448 452 456 460 464 468 472 476 480 484 488 492 496 500 504 508 512 516 520 524 528 532 536 540 544 548 552 556 560 564 568 572 576 580 584 588 592 596 600 604 608 612 616 620 624 628 632 636 640 644 648 652 656 660 664 668 672 676 680 684 688 692 696 700 704 708 712 716 720 724 728 732 736 740 744 748 752 756 760 764 768 772 776 780 784 788 792 796 800 804 808 812 816 820 824 828 832 836 840 844 848 852 856 860 864 868 872 876 880 884 888 892 896 900 904 908 912 916 920 924 928 932 936 940 944 948 952 956 960 964 968 972 976 980 984 988 992 996 1000 1004 1008 1012 1016 1020 1024 1028 1032 1036 1040 1044 1048 1052 1056 1060 1064 1068 1072 1076 1080 1084 1088 1092 1096 1100 1104 1108 1112 1116 1120 1124 1128 1132 1136 1140 1144 1148 1152 1156 1160 1164 1168 1172 1176 1180 1184 1188 1192 1196 1200 1204 1208 1212 1216 1220 1224 1228 1232 1236 1240 1244 1248 1252 1256 1260 1264 1268 1272 1276 1280 1284 1288 1292 1296 1300 1304 1308 1312 1316 1320 1324 1328 1332 1336 1340 1344 1348 1352 1356 1360 1364 1368 1372 1376 1380 1384 1388 1392 1396 1400 1404 1408 1412 1416 1420 1424 1428 1432 1436 1440 1444 1448 1452 1456 1460 1464 1468 1472 1476 1480 1484 1488 1492 1496 1500 1504 1508 1512 1516 1520 1524 1528 1532 1536 1540 1544 1548 1552 1556 1560 1564 1568 1572 1576 1580 1584 1588 1592 1596 1600 1604 1608 1612 1616 1620 1624 1628 1632 1636 1640 1644 1648 1652 1656 1660 1664 1668 1672 1676 1680 1684 1688 1692 1696 1700 1704 1708 1712 1716 1720 1724 1728 1732 1736 1740 1744 1748 1752 1756 1760 1764 1768 1772 1776 1780 1784 1788 1792 1796 1800 1804 1808 1812 1816 1820 1824 1828 1832 1836 1840 1844 1848 1852 1856 1860 1864 1868 1872 1876 1880 1884 1888 1892 1896 1900 1904 1908 1912 1916 1920 1924 1928 1932 1936 1940 1944 1948 1952 1956 1960 1964 1968 1972 1976 1980 1984 1988 1992 1996 2000 2004 2008 2012 2016 2020 2024 2028 2032 2036 2040 2044 2048 2052 2056 2060 2064 2068 2072 2076 2080 2084 2088 2092 2096 2100 2104 2108 2112 2116 2120 2124 2128 2132 2136 2140 2144 2148 2152 2156 2160 2164 2168 2172 2176 2180 2184 2188 2192 2196 2200 2204 2208 2212 2216 2220 2224 2228 2232 2236 2240 2244 2248 2252 2256 2260 2264 2268 2272 2276 2280 2284 2288 2292 2296 2300 2304 2308 2312 2316 2320 2324 2328 2332 2336 2340 2344 2348 2352 2356 2360 2364 2368 2372 2376 2380 2384 2388 2392 2396 2400 2404 2408 2412 2416 2420 2424 2428 2432 2436 2440 2444 2448 2452 2456 2460 2464 2468 2472 2476 2480 2484 2488 2492 2496 2500 2504 2508 2512 2516 2520 2524 2528 2532 2536 2540 2544 2548 2552 2556 2560 2564 2568 2572 2576 2580 2584 2588 2592 2596 2600 2604 2608 2612 2616 2620 2624 2628 2632 2636 2640 2644 2648 2652 2656 2660 2664 2668 2672 2676 2680 2684 2688 2692 2696 2700 2704 2708 2712 2716 2720 2724 2728 2732 2736 2740 2744 2748 2752 2756 2760 2764 2768 2772 2776 2780 2784 2788 2792 2796 2800 2804 2808 2812 2816 2820 2824 2828 2832 2836 2840 2844 2848 2852 2856 2860 2864 2868 2872 2876 2880 2884 2888 2892 2896 2900 2904 2908 2912 2916 2920 2924 2928 2932 2936 2940 2944 2948 2952 2956 2960 2964 2968 2972 2976 2980 2984 2988 2992 2996 3000 3004 3008 3012 3016 3020 3024 3028 3032 3036 3040 3044 3048 3052 3056 3060 3064 3068 3072 3076 3080 3084 3088 3092 3096 3100 3104 3108 3112 3116 3120 3124 3128 3132 3136 3140 3144 3148 3152 3156 3160 3164 3168 3172 3176 3180 3184 3188 3192 3196 3200 3204 3208 3212 3216 3220 3224 3228 3232 3236 3240 3244 3248 3252 3256 3260 3264 3268 3272 3276 3280 3284 3288 3292 3296 3300 3304 3308 3312 3316 3320 3324 3328 3332 3336 3340 3344 3348 3352 3356 3360 3364 3368 3372 3376 3380 3384 3388 3392 3396 3400 3404 3408 3412 3416 3420 3424 3428 3432 3436 3440 3444 3448 3452 3456 3460 3464 3468 3472 3476 3480 3484 3488 3492 3496 3500 3504 3508 3512 3516 3520 3524 3528 3532 3536 3540 3544 3548 3552 3556 3560 3564 3568 3572 3576 3580 3584 3588 3592 3596 3600 3604 3608 3612 3616 3620 3624 3628 3632 3636 3640 3644 3648 3652 3656 3660 3664 3668 3672 3676 3680 3684 3688 3692 3696 3700 3704 3708 3712 3716 3720 3724 3728 3732 3736 3740 3744 3748 3752 3756 3760 3764 3768 3772 3776 3780 3784 3788 3792 3796 3800 3804 3808 3812 3816 3820 3824 3828 3832 3836 3840 3844 3848 3852 3856 3860 3864 3868 3872 3876 3880 3884 3888 3892 3896 3900 3904 3908 3912 3916 3920 3924 3928 3932 3936 3940 3944 3948 3952 3956 3960 3964 3968 3972 3976 3980 3984 3988 3992 3996 4000 4004 4008 4012 4016 4020 4024 4028 4032 4036 4040 4044 4048 4052 4056 4060 4064 4068 4072 4076 4080 4084 4088 4092 4096 4100 4104 4108 4112 4116 4120 4124 4128 4132 4136 4140 4144 4148 4152 4156 4160 4164 4168 4172 4176 4180 4184 4188 4192 4196 4200 4204 4208 4212 4216 4220 4224 4228 4232 4236 4240 4244 4248 4252 4256 4260 4264 4268 4272 4276 4280 4284 4288 4292 4296 4300 4304 4308 4312 4316 4320 4324 4328 4332 4336 4340 4344 4348 4352 4356 4360 4364 4368 4372 4376 4380 4384 4388 4392 4396 4400 4404 4408 4412 4416 4420 4424 4428 4432 4436 4440 4444 4448 4452 4456 4460 4464 4468 4472 4476 4480 4484 4488 4492 4496 4500 4504 4508 4512 4516 4520 4524 4528 4532 4536 4540 4544 4548 4552 4556 4560 4564 4568 4572 4576 4580 4584 4588 4592 4596 4600 4604 4608 4612 4616 4620 4624 4628 4632 4636 4640 4644 4648 4652 4656 4660 4664 4668 4672 4676 4680 4684 4688 4692 4696 4700 4704 4708 4712 4716 4720 4724 4728 4732 4736 4740 4744 4748 4752 4756 4760 4764 4768 4772 4776 4780 4784 4788 4792 4796 4800 4804 4808 4812 4816 4820 4824 4828 4832 4836 4840 4844 4848 4852 4856 4860 4864 4868 4872 4876 4880 4884 4888 4892 4896 4900 4904 4908 4912 4916 4920 4924 4928 4932 4936 4940 4944 4948 4952 4956 4960 4964 4968 4972 4976 4980 4984 4988 4992 4996 5000 5004 5008 5012 5016 5020 5024 5028 5032 5036 5040 5044 5048 5052 5056 5060 5064 5068 5072 5076 5080 5084 5088 5092 5096 5100 5104 5108 5112 5116 5120 5124 5128 5132 5136 5140 5144 5148 5152 5156 5160 5164 5168 5172 5176 5180 5184 5188 5192 5196 5200 5204 5208 5212 5216 5220 5224 5228 5232 5236 5240 5244 5248 5252 5256 5260 5264 5268 5272 5276 5280 5284 5288 5292 5296 5300 5304 5308 5312 5316 5320 5324 5328 5332 5336 5340 5344 5348 5352 5356 5360 5364 5368 5372 5376 5380 5384 5388 5392 5396 5400 5404 5408 5412 5416 5420 5424 5428 5432 5436 5440 5444 5448 5452 5456 5460 5464 5468 5472 5476 5480 5484 5488 5492 5496 5500 5504 5508 5512 5516 5520 5524 5528 5532 5536 5540 5544 5548 5552 5556 5560 5564 5568 5572 5576 5580 5584 5588 5592 5596 5600 5604 5608 5612 5616 5620 5624 5628 5632 5636 5640 5644 5648 5652 5656 5660 5664 5668 5672 5676 5680 5684 5688 5692 5696 5700 5704 5708 5712 5716 5720 5724 5728 5732 5736 5740 5744 5748 5752 5756 5760 5764 5768 5772 5776 5780 5784 5788 5792 5796 5800 5804 5808 5812 5816 5820 5824 5828 5832 5836 5840 5844 5848 5852 5856 5860 5864 5868 5872 5876 5880 5884 5888 5892 5896 5900 5904 5908 5912 5916 5920 5924 5928 5932 5936 5940 5944 5948 5952 5956 5960 5964 5968 5972 5976 5980 5984 5988 5992 5996 6000 6004 6008 6012 6016 6020 6024 6028 6032 6036 6040 6044 6048 6052 6056 6060 6064 6068 6072 6076 6080 6084 6088 6092 6096 6100 6104 6108 6112 6116 6120 6124 6128 6132 6136 6140 6144 6148 6152 6156 6160 6164 6168 6172 6176 6180 6184 6188 6192 6196 6200 6204 6208 6212 6216 6220 6224 6228 6232 6236 6240 6244 6248 6252 6256 6260 6264 6268 6272 6276 6280 6284 6288 6292 6296 6300 6304 6308 6312 6316 6320 6324 6328 6332 6336 6340 6344 6348 6352 6356 6360 6364 6368 6372 6376 6380 6384 6388 6392 6396 6400 6404 6408 6412 6416 6420 6424 6428 6432 6436 6440 6444 6448 6452 6456 6460 6464 6468 6472 6476 6480 6484 6488 6492 6496 6500 6504 6508 6512 6516 6520 6524 6528 6532 6536 6540 6544 6548 6552 6556 6560 6564 6568 6572 6576 6580 6584 6588 6592 6596 6600 6604 6608 6612 6616 6620 6624 6628 6632 6636 6640 6644 6648 6652 6656 6660 6664 6668 6672 6676 6680 6684 6688 6692 6696 6700 6704 6708 6712 6716 6720 6724 6728 6732 6736 6740 6744 6748 6752 6756 6760 6764 6768 6772 6776 6780 6784 6788 6792 6796 6800 6804 6808 6812 6816 6820 6824 6828 6832 6836 6840 6844 6848 6852 6856 6860 6864 6868 6872 6876 6880 6884 6888 6892 6896 6900 6904 6908 6912 6916 6920 6924 6928 6932 6936 6940 6944 6948 6952 6956 6960 6964 6968 6972 6976 6980 6984 6988 6992 6996 7000 7004 7008 7012 7016 7020 7024 7028 7032 7036 7040 7044 7048 7052 7056 7060 7064 7068 7072 7076 7080 7084 7088 7092 7096 7100 7104 7108 7112 7116 7120 7124 7128 7132 7136 7140 7144 7148 7152 7156 7160 7164 7168 7172 7176 7180 7184 7188 7192 7196 7200 7204 7208 7212 7216 7220 7224 7228 7232 7236 7240 7244 7248 7252 7256 7260 7264 7268 7272 7276 7280 7284 7288 7292 7296 7300 7304 7308 7312 7316 7320 7324 7328 7332 7336 7340 7344 7348 7352 7356 7360 7364 7368 7372 7376 7380 7384 7388 7392 7396 7400 7404 7408 7412 7416 7420 7424 7428 7432 7436 7440 7444 7448 7452 7456 7460 7464 7468 7472 7476 7480 7484 7488 7492 7496 7500 7504 7508 7512 7516 7520 7524 7528 7532 7536 7540 7544 7548 7552 7556 7560 7564 7568 7572 7576 7580 7584 7588 7592 7596 7600 7604 7608 7612 7616 7620 7624 7628 7632 7636 7640 7644 7648 7652 7656 7660 7664 7668 7672 7676 7680 7684 7688 7692 7696 7700 7704 7708 7712 7716 7720 7724 7728 7732 7736 7740 7744 7748 7752 7756 7760 7764 7768 7772 7776 7780 7784 7788 7792 7796 7800 7804 7808 7812 7816 7820 7824 7828 7832 7836 7840 7844 7848 7852 7856 7860 7864 7868 7872 7876 7880 7884 7888 7892 7896 7900 7904 7908 7912 7916 7920 7924 7928 7932 7936 7940 7944 7948 7952 7956 7960 7964 7968 7972 7976 7980 7984 7988 7992 7996 8000 8004 8008 8012 8016 8020 8024 8028 8032 8036 8040 8044 8048 8052 8056 8060 8064 8068 8072 8076 8080 8084 8088 8092 8096 8100 8104 8108 8112 8116 8120 8124 8128 8132 8136 8140 8144 8148 8152 8156 8160 8164 8168 8172 8176 8180 8184 8188 8192 8196 8200 8204 8208 8212 8216 8220 8224 8228 8232 8236 8240 8244 8248 8252 8256 8260 8264 8268 8272 8276 8280 8284 8288 8292 8296 8300 8304 8308 8312 8316 8320 8324 8328 8332 8336 8340 8344 8348 8352 8356 8360 8364 8368 8372 8376 8380 8384 8388 8392 8396 8400 8404 8408 8412 8416 8420 8424 8428 8432 8436 8440 8444 8448 8452 8456 8460 8464 8468 8472 8476 8480 8484 8488 8492 8496 8500 8504 8508 8512 8516 8520 8524 8528 8532 8536 8540 8544 8548 8552 8556 8560 8564 8568 8572 8576 8580 8584 8588 8592 8596 8600 8604 8608 8612 8616 8620 8624 8628 8632 8636 8640 8644 8648 8652 8656 8660 8664 8668 8672 8676 8680 8684 8688 8692 8696 8700 8704 8708 8712 8716 8720 8724 8728 8732 8736 8740 8744 8748 8752 8756 8760 8764 8768 8772 8776 8780 8784 8788 8792 8796 8800 8804 8808 8812 8816 8820 8824 8828 8832 8836 8840 8844 8848 8852 8856 8860 8864 8868 8872 8876 8880 8884 8888 8892 8896 8900 8904 8908 8912 8916 8920 8924 8928 8932 8936 8940 8944 8948 8952 8956 8960 8964 8968 8972 8976 8980 8984 8988 8992 8996 9000 9004 9008 9012 9016 9020 9024 9028 9032 9036 9040 9044 9048 9052 9056 9060 9064 9068 9072 9076 9080 9084 9088 9092 9096 9100 9104 9108 9112 9116 9120 9124 9128 9132 9136 9140 9144 9148 9152 9156 9160 9164 9168 9172 9176 9180 9184 9188 9192 9196 9200 9204 9208 9212 9216 9220 9224 9228 9232 9236 9240 9244 9248 9252 9256 9260 9264 9268 9272 9276 9280 9284 9288 9292 9296 9300 9304 9308 9312 9316 9320 9324 9328 9332 9336 9340 9344 9348 9352 9356 9360 9364 9368 9372 9376 9380 9384 9388 9392 9396 9400 9404 9408 9412 9416 9420 9424 9428 9432 9436 9440 9444 9448 9452 9456 9460 9464 9468 9472 9476 9480 9484 9488 9492 9496 9500 9504 9508 9512 9516 9520 9524 9528 9532 9536 9540 9544 9548 9552 9556 9560 9564 9568 9572 9576 9580 9584 9588 9592 9596 9600 9604 9608 9612 9616 9620 9624 9628 9632 9636 9640 9644 9648 9652 9656 9660 9664 9668 9672 9676 9680 9684 9688 9692 9696 9700 9704 9708 9712 9716 9720 9724 9728 9732 9736 9740 9744 9748 9752 9756 9760 9764 9768 9772 9776 9780 9784 9788 9792 9796 9800 9804 9808 9812 9816 9820 9824 9828 9832 9836 9840 9844 9848 9852 9856 9860 9864 9868 9872 9876 9880 9884 9888 9892 9896 9900 9904 9908 9912 9916 9920 9924 9928 9932 9936 9940 9944 9948 9952 9956 9960 9964 9968 9972 9976 9980 9984 9988 9992 9996 10000 10004 10008 10012 10016 10020 10024 10028 10032 10036 10040 10044 10048 10052 10056 10060 10064 10068 10072 10076 10080 10084 10088 10092 10096 10100 10104 10108 10112 10116 10120 10124 10128 10132 10136 10140 10144 10148 10152 10156 10160 10164 10168 10172 10176 10180 10184 10188 10192 10196 10200 10204 10208 10212 10216 10220 10224 10228 10232 10236 10240 10244 10248 10252 10256 10260 10264 10268 10272 10276 10280 10284 10288 10292 10296 10300 10304 10308 10312 10316 10320 10324 10328 10332 10336 10340 10344 10348 10352 10356 10360 10364 10368 10372 10376 10380 10384 10388 10392 10396 10400 10404 10408 10412 10416 10420 10424 10428 10432 10436 10440 10444 10448 10452 10456 10460 10464 10468 10472 10476 10480 10484 10488 10492 10496 10500 10504 10508 10512 10516 10520 10524 10528 10532 10536 10540 10544 10548 10552 10556 10560 10564 10568 10572 10576 10580 10584 10588 10592 10596 10600 10604 10608 10612 10616 10620 10624 10628 10632 10636 10640 10644 10648 10652 10656 10660 10664 10668 10672 10676 10680 10684 10688 10692 10696 10700 10704 10708 10712 10716 10720 10724 10728 10732 10736 10740 10744 10748 10752 10756 10760 10764 10768 10772 10776 10780 10784 10788 10792 10796 10800 10804 10808 10812 10816 10820 10824 10828 10832 10836 10840 10844 10848 10852 10856 10860 10864 10868 10872 10876 10880 10884 10888 10892 10896 10900 10904 10908 10912 10916 10920 10924 10928 10932 10936 10940 10944 10948 10952 10956 10960 10964 10968 10972 10976 10980 10984 10988 10992 10996 11000 11004 11008 11012 11016 11020 11024 11028 11032 11036 11040 11044 11048 11052 11056 11060 11064 11068 11072 11076 11080 11084 11088 11092 11096 11100 11104 11108 11112 11116 11120 11124 11128 11132 11136 11140 11144 11148 11152 11156 11160 11164 11168 11172 11176 11180 11184 11188 11192 11196 11200 11204 11208 11212 11216 11220 11224 11228 11232 11236 11240 11244 11248 11252 11256 11260 11264 11268 11272 11276 11280 11284 11288 11292 11296 11300 11304 11308 11312 11316 11320 11324 11328 11332 11336 11340 11344 11348 11352 11356 11360 11364 11368 11372 11376 11380 11384 11388 11392 11396 11400 11404 11408 11412 11416 11420 11424 11428 11432 11436 11440 11444 11448 11452 11456 11460 11464 11468 11472 11476 11480 11484 11488 11492 11496 11500 11504 11508 11512 11516 11520 11524 11528 11532 11536 11540 11544 11548 11552 11556 11560 11564 11568 11572 11576 11580 11584 11588 11592 11596 11600 11604 11608 11612 11616 11620 11624 11628 11632 11636 11640 11644 11648 11652 11656 11660 11664 11668 11672 11676 11680 11684 11688 11692 11696 11700 11704 11708 11712 11716 11720 11724 11728 11732 11736 11740 11744 11748 11752 11756 11760 11764 11768 11772 11776 11780 11784 11788 11792 11796 11800 11804 11808 11812 11816 11820 11824 11828 11832 11836 11840 11844 11848 11852 11856 11860 11864 11868 11872 11876 11880 11884 11888 11892 11896 11900 11904 11908 11912 11916 11920 11924 11928 11932 11936 11940 11944 11948 11952 11956 11960 11964 11968 11972 11976 11980 11984 11988 11992 11996 12000 12004 12008 12012 12016 12020 12024 12028 12032 12036 12040 12044 12048 12052 12056 12060 12064 12068 12072 12076 12080 12084 12088 12092 12096 12100 12104 12108 12112 12116 12120 12124 12128 12132 12136 12140 12144 12148 12152 12156 12160 12164 12168 12172 12176 12180 12184 12188 12192 12196 12200 12204 12208 12212 12216 12220 12224 12228 12232 12236 12240 12244 12248 12252 12256 12260 12264 12268 12272 12276 12280 12284 12288 12292 12296 12300 12304 12308 12312 12316 12320 12324 12328 12332 12336 12340 12344 12348 12352 12356 12360 12364 12368 12372 12376 12380 12384 12388 12392 12396 12400 12404 12408 12412 12416 12420 12424 12428 12432 12436 12440 12444 12448 12452 12456 12460 12464 12468 12472 12476 12480 12484 12488 12492 12496 12500 12504 12508 12512 12516 12520 12524 12528 12532 12536 12540 12544 12548 12552 12556 12560 12564 12568 12572 12576 12580 12584 12588 12592 12596 12600 12604 12608 12612 12616 12620 12624 12628 12632 12636 12640 12644 12648 12652 12656 12660 12664 12668 12672 12676 12680 12684 12688 12692 12696 12700 12704 12708 12712 12716 12720 12724 12728 12732 12736 12740 12744 12748 12752 12756 12760 12764 12768 12772 12776 12780 12784 12788 12792 12796 12800 12804 12808 12812 12816 12820 12824 12828 12832 12836 12840 12844 12848 12852 12856 12860 12864 12868 12872 12876 12880 12884 12888 12892 12896 12900 12904 12908 12912 12916 12920 12924 12928 12932 12936 12940 12944 12948 12952 12956 12960 12964 12968 12972 12976 12980 12984 12988 12992 12996 13000 13004 13008 13012 13016 13020 13024 13028 13032 13036 13040 13044 13048 13052 13056 13060 13064 13068 13072 13076 13080 13084 13088 13092 13096 13100 13104 13108 13112 13116 13120 13124 13128 13132 13136 13140 13144 13148 13152 13156 13160 13164 13168 13172 13176 13180 13184 13188 13192 13196 13200 13204 13208 13212 13216 13220 13224 13228 13232 13236 13240 13244 13248 13252 13256 13260 13264 13268 13272 13276 13280 13284 13288 13292 13296 13300 13304 13308 13312 13316 13320 13324 13328 13332 13336 13340 13344 13348 13352 13356 13360 13364 13368 13372 13376 13380 13384 13388 13392 13396 13400 13404 13408 13412 13416 13420 13424 13428 13432 13436 13440 13444 13448 13452 13456 13460 13464 13468 13472 13476 13480 13484 13488 13492 13496 13500 13504 13508 13512 13516 13520 13524 13528 13532 13536 13540 13544 13548 13552 13556 13560 13564 13568 13572 13576 13580 13584 13588 13592 13596 13600 13604 13608 13612 13616 13620 13624 13628 13632 13636 13640 13644 13648 13652 13656 13660 13664 13668 13672 13676 13680 13684 13688 13692 13696 13700 13704 13708 13712 13716 13720 13724 13728 13732 13736 13740 13744 13748 13752 13756 13760 13764 13768 13772 13776 13780 13784 13788 13792 13796 13800 13804 13808 13812 13816 13820 13824 13828 13832 13836 13840 13844 13848 13852 13856 13860 13864 13868 13872 13876 13880 13884 13888 13892 13896 13900 13904 13908 13912 13916 13920 13924 13928 13932 13936 13940 13944 13948 13952 13956 13960 13964 13968 13972 13976 13980 13984 13988 13992 13996 14000 14004 14008 14012 14016 14020 14024 14028 14032 14036 14040 14044 14048 14052 14056 14060 14064 14068 14072 14076 14080 14084 14088 14092 14096 14100 14104 14108 14112 14116 14120 14124 14128 14132 14136 14140 14144 14148 14152 14156 14160 14164 14168 14172 14176 14180 14184 14188 14192 14196 14200 14204 14208 14212 14216 14220 14224 14228 14232 14236 14240 14244 14248 14252 14256 14260 14264 14268 14272 14276 14280 14284 14288 14292 14296 14300 14304 14308 14312 14316 14320 14324 14328 14332 14336 14340 14344 14348 14352 14356 14360 14364 14368 14372 14376 14380 14384 14388 14392 14396 14400 14404 14408 14412 14416 14420 14424 14428 14432 14436 14440 14444 14448 14452 14456 14460 14464 14468 14472 14476 14480 14484 14488 14492 14496 14500 14504 14508 14512 14516 14520 14524 14528 14532 14536 14540 14544 14548 14552 14556 14560 14564 14568 14572 14576 14580 14584 14588 14592 14596 14600 14604 14608 14612 14616 14620 14624 14628 14632 14636 14640 14644 14648 14652 14656 14660 14664 14668 14672 14676 14680 14684 14688 14692 14696 14700 14704 14708 14712 14716 14720 14724 14728 14732 14736 14740 14744 14748 14752 14756 14760 14764 14768 14772 14776 14780 14784 14788 14792 14796 14800 14804 14808 14812 14816 14820 14824 14828 14832 14836 14840 14844 14848 14852 14856 14860 14864 14868 14872 14876 14880 14884 14888 14892 14896 14900 14904 14908 14912 14916 14920 14924 14928 14932 14936 14940 14944 14948 14952 14956 14960 14964 14968 14972 14976 14980 14984 14988 14992 14996 15000 15004 15008 15012 15016 15020 15024 15028 15032 15036 15040 15044 15048 15052 15056 15060 15064 15068 15072 15076 15080 15084 15088 15092 15096 15100 15104 15108 15112 15116 15120 15124 15128 15132 15136 15140 15144 15148 15152 15156 15160 15164 15168 15172 15176 15180 15184 15188 15192 15196 15200 15204 15208 15212 15216 15220 15224 15228 15232 15236 15240 15244 15248 15252 15256 15260 15264 15268 15272 15276 15280 15284 15288 15292 15296 15300 15304 15308 15312 15316 15320 15324 15328 15332 15336 15340 15344 15348 15352 15356 15360 15364 15368 15372 15376 15380 15384 15388 15392 15396 15400 15404 15408 15412 15416 15420 15424 15428 15432 15436 15440 15444 15448 15452 15456 15460 15464 15468 15472 15476 15480 15484 15488 15492 15496 15500 15504 15508 15512 15516 15520 15524 15528 15532 15536 15540 15544 15548 15552 15556 15560 15564 15568 15572 15576 15580 15584 15588 15592 15596 15600 15604 15608 15612 15616 15620 15624 15628 15632 15636 15640 15644 15648 15652 15656 15660 15664 15668 15672 15676 15680 15684 15688 15692 15696 15700 15704 15708 15712 15716 15720 15724 15728 15732 15736 15740 15744 15748 15752 15756 15760 15764 15768 15772 15776 15780 15784 15788 15792 15796 15800 15804 15808 15812 15816 15820 15824 15828 15832 15836 15840 15844 15848 15852 15856 15860 15864 15868 15872 15876 15880 15884 15888 15892 15896 15900 15904 15908 15912 15916 15920 15924 15928 15932 15936 15940 15944 15948 15952 15956 15960 15964 15968 15972 15976 15980 15984 15988 15992 15996 16000 16004 16008 16012 16016 16020 16024 16028 16032 16036 16040 16044 16048 16052 16056 16060 16064 16068 16072 16076 16080 16084 16088 16092 16096 16100 16104 16108 16112 16116 16120 16124 16128 16132 16136 16140 16144 16148 16152 16156 16160 16164 16168 16172 16176 16180 16184 16188 16192 16196 16200 16204 16208 16212 16216 16220 16224 16228 16232 16236 16240 16244 16248 16252 16256 16260 16264 16268 16272 16276 16280 16284 16288 16292 16296 16300 16304 16308 16312 16316 16320 16324 16328 16332 16336 16340 16344 16348 16352 16356 16360 16364 16368 16372 16376 16380 16384 16388 16392 16396 16400 16404 16408 16412 16416 16420 16424 16428 16432 16436 16440 16444 16448 16452 16456 16460 16464 16468 16472 16476 16480 16484 16488 16492 16496 16500 16504 16508 16512 16516 16520 16524 16528 16532 16536 16540 16544 16548 16552 16556 16560 16564 16568 16572 16576 16580 16584 16588 16592 16596 16600 16604 16608 16612 16616 16620 16624 16628 16632 16636 16640 16644 16648 16652 16656 16660 16664 16668 16672 16676 16680 16684 16688 16692 16696 16700 16704 16708 16712 16716 16720 16724 16728 16732 16736 16740 16744 16748 16752 16756 16760 16764 16768 16772 16776 16780 16784 16788 16792 16796 16800 16804 16808 16812 16816 16820 16824 16828 16832 16836 16840 16844 16848 16852 16856 16860 16864 16868 16872 16876 16880 16884 16888 16892 16896 16900 16904 16908 16912 16916 16920 16924 16928 16932 16936 16940 16944 16948 16952 16956 16960 16964 16968 16972 16976 16980 16984 16988 16992 16996 17000 17004 17008 17012 17016 17020 17024 17028 17032 17036 17040 17044 17048 17052 17056 17060 17064 17068 17072 17076 17080 17084 17088 17092 17096 17100 17104 17108 17112 17116 17120 17124 17128 17132 17136 17140 17144 17148 17152 17156 17160 17164 17168 17172 17176 17180 17184 17188 17192 17196 17200 17204 17208 17212 17216 17220 17224 17228 17232 17236 17240 17244 17248 17252 17256 17260 17264 17268 17272 17276 17280 17284 17288 17292 17296 17300 17304 17308 17312 17316 17320 17324 17328 17332 17336 17340 17344 17348 17352 17356 17360 17364 17368 17372 17376 17380 17384 17388 17392 17396 17400 17404 17408 17412 17416 17420 17424 17428 17432 17436 17440 17444 17448 17452 17456 17460 17464 17468 17472 17476 17480 17484 17488 17492 17496 17500 17504 17508 17512 17516 17520 17524 17528 17532 17536 17540 17544 17548 17552 17556 17560 17564 17568 17572 17576 17580 17584 17588 17592 17596 17600 17604 17608 17612 17616 17620 17624 17628 17632 17636 17640 17644 17648 17652 17656 17660 17664 17668 17672 17676 17680 17684 17688 17692 17696 17700 17704 17708 17712 17716 17720 17724 17728 17732 17736 17740 17744 17748 17752 17756 17760 17764 17768 17772 17776 17780 17784 17788 17792 17796 17800 17804 17808 17812 17816 17820 17824 17828 17832 17836 17840 17844 17848 17852 17856 17860 17864 17868 17872 17876 17880 17884 17888 17892 17896 17900 17904 17908 17912 17916 17920 17924 17928 17932 17936 17940 17944 17948 17952 17956 17960 17964 17968 17972 17976 17980 17984 17988 17992 17996 18000 18004 18008 18012 18016 18020 18024 18028 18032 18036 18040 18044 18048 18052 18056 18060 18064 18068 18072 18076 18080 18084 18088 18092 18096 18100 18104 18108 18112 18116 18120 18124 18128 18132 18136 18140 18144 18148 18152 18156 18160 18164 18168 18172 18176 18180 18184 18188 18192 18196 18200 18204 18208 18212 18216 18220 18224 18228 18232 18236 18240 18244 18248 18252 18256 18260 18264 18268 18272 18276 18280 18284 18288 18292 18296 18300 18304 18308 18312 18316 18320 18324 18328 18332 18336 18340 18344 18348 18352 18356 18360 18364 18368 18372 18376 18380 18384 18388 18392 18396 18400 18404 18408 18412 18416 18420 18424 18428 18432 18436 18440 18444 18448 18452 18456 18460 18464 18468 18472 18476 18480 18484 18488 18492 18496 18500 18504 18508 18512 18516 18520 18524 18528 18532 18536 18540 18544 18548 18552 18556 18560 18564 18568 18572 18576 18580 18584 18588 18592 18596 18600 18604 18608 18612 18616 18620 18624 18628 18632 18636 18640 18644 18648 18652 18656 18660 18664 18668 18672 18676 18680 18684 18688 18692 18696 18700 18704 18708 18712 18716 18720 18724 18728 18732 18736 18740 18744 18748 18752 18756 18760 18764 18768 18772 18776 18780 18784 18788 18792 18796 18800 18804 18808 18812 18816 18820 18824 18828 18832 18836 18840 18844 18848 18852 18856 18860 18864 18868 18872 18876 18880 18884 18888 18892 18896 18900 18904 18908 18912 18916 18920 18924 18928 18932 18936 18940 18944 18948 18952 18956 18960 18964 18968 18972 18976 18980 18984 18988 18992 18996 19000 19004 19008 19012 19016 19020 19024 19028 19032 19036 19040 19044 19048 19052 19056 19060 19064 19068 19072 19076 19080 19084 19088 19092 19096 19100 19104 19108 19112 19116 19120 19124 19128 19132 19136 19140 19144 19148 19152 19156 19160 19164 19168 19172 19176 19180 19184 19188 19192 19196 19200 19204 19208 19212 19216 19220 19224 19228 19232 19236 19240 19244 19248 19252 19256 19260 19264 19268 19272 19276 19280 19284 19288 19292 19296 19300 19304 19308 19312 19316 19320 19324 19328 19332 19336 19340 19344 19348 19352 19356 19360 19364 19368 19372 19376 19380 19384 19388 19392 19396 19400 19404 19408 19412 19416 19420 19424 19428 19432 19436 19440 19444 19448 19452 19456 19460 19464 19468 19472 19476 19480 19484 19488 19492 19496 19500 19504 19508 19512 19516 19520 19524 19528 19532 19536 19540 19544 19548 19552 19556 19560 19564 19568 19572 19576 19580 19584 19588 19592 19596 19600 19604 19608 19612 19616 19620 19624 19628 19632 19636 19640 19644 19648 19652 19656 19660 19664 19668 19672 19676 19680 19684 19688 19692 19696 19700 19704 19708 19712 19716 19720 19724 19728 19732 19736 19740 19744 19748 19752 19756 19760 19764 19768 19772 19776 19780 19784 19788 19792 19796 19800 19804 19808 19812 19816 19820 19824 19828 19832 19836 19840 19844 19848 19852 19856 19860 19864 19868 19872 19876 19880 19884 19888 19892 19896 19900 19904 19908 19912 19916 19920 19924 19928 19932 19936 19940 19944 19948 19952 19956 19960 19964 19968 19972 19976 19980 19984 19988 19992 19996 20000 20004 20008 20012 20016 20020 20024 20028 20032 20036 20040 20044 20048 20052 20056 20060 20064 20068 20072 20076 20080 20084 20088 20092 20096 20100 20104 20108 20112 20116 20120 20124 20128 20132 20136 20140 20144 20148 20152 20156 20160 20164 20168 20172 20176 20180 20184 20188 20192 20196 20200 20204 20208 20212 20216 20220 20224 20228 20232 20236 20240 20244 20248 20252 20256 20260 20264 20268 20272 20276 20280 20284 20288 20292 20296 20300 20304 20308 20312 20316 20320 20324 20328 20332 20336 20340 20344 20348 20352 20356 20360 20364 20368 20372 20376 20380 20384 20388 20392 20396 20400 20404 20408 20412 20416 20420 20424 20428 20432 20436 20440 20444 20448 20452 20456 20460 20464 20468 20472 20476 20480 20484 20488 20492 20496 20500 20504 20508 20512 20516 20520 20524 20528 20532 20536 20540 20544 20548 20552 20556 20560 20564 20568 20572 20576 20580 20584 20588 20592 20596 20600 20604 20608 20612 20616 20620 20624 20628 20632 20636 20640 20644 20648 20652 20656 20660 20664 20668 20672 20676 20680 20684 20688 20692 20696 20700 20704 20708 20712 20716 20720 20724 20728 20732 20736 20740 20744 20748 20752 20756 20760 20764 20768 20772 20776 20780 20784 20788 20792 20796 20800 20804 20808 20812 20816 20820 20824 20828 20832 20836 20840 20844 20848 20852 20856 20860 20864 20868 20872 20876 20880 20884 20888 20892 20896 20900 20904 20908 20912 20916 20920 20924 20928 20932 20936 20940 20944 20948 20952 20956 20960 20964 20968 20972 20976 20980 20984 20988 20992 20996 21000 21004 21008 21012 21016 21020 21024 21028 21032 21036 21040 21044 21048 21052 21056 21060 21064 21068 21072 21076 21080 21084 21088 21092 21096 21100 21104 21108 21112 21116 21120 21124 21128 21132 21136 21140 21144 21148 21152 21156 21160 21164 21168 21172 21176 21180 21184 21188 21192 21196 21200 21204 21208 21212 21216 21220 21224 21228 21232 21236 21240 21244 21248 21252 21256 21260 21264 21268 21272 21276 21280 21284 21288 21292 21296 21300 21304 21308 21312 21316 21320 21324 21328 21332 21336 21340 21344 21348 21352 21356 21360 21364 21368 21372 21376 21380 21384 21388 21392 21396 21400 21404 21408 21412 21416 21420 21424 21428 21432 21436 21440 21444 21448 21452 21456 21460 21464 21468 21472 21476 21480 21484 21488 21492 21496 21500 21504 21508 21512 21516 21520 21524 21528 21532 21536 21540 21544 21548 21552 21556 21560 21564 21568 21572 21576 21580 21584 21588 21592 21596 21600 21604 21608 21612 21616 21620 21624 21628 21632 21636 21640 21644 21648 21652 21656 21660 21664 21668 21672 21676 21680 21684 21688 21692 21696 21700 21704 21708 21712 21716 21720 21724 21728 21732 21736 21740 21744 21748 21752 21756 21760 21764 21768 21772 21776 21780 21784 21788 21792 21796 21800 21804 21808 21812 21816 21820 21824 21828 21832 21836 21840 21844 21848 21852 21856 21860 21864 21868 21872 21876 21880 21884 21888 21892 21896 21900 21904 21908 21912 21916 21920 21924 21928 21932 21936 21940 21944 21948 21952 21956 21960 21964 21968 21972 21976 21980 21984 21988 21992 21996 22000 22004 22008 22012 22016 22020 22024 22028 22032 22036 22040 22044 22048 22052 22056 22060 22064 22068 22072 22076 22080 22084 22088 22092 22096 22100 22104 22108 22112 22116 22120 22124 22128 22132 22136 22140 22144 22148 22152 22156 22160 22164 22168 22172 22176 22180 22184 22188 22192 22196 22200 22204 22208 22212 22216 22220 22224 22228 22232 22236 22240 22244 22248 22252 22256 22260 22264 22268 22272 22276 22280 22284 22288 22292 22296 22300 22304 22308 22312 22316 22320 22324 22328 22332 22336 22340 22344 22348 22352 22356 22360 22364 22368 22372 22376 22380 22384 22388 22392 22396 22400 22404 22408 22412 22416 22420 22424 22428 22432 22436 22440 22444 22448 22452 22456 22460 22464 22468 22472 22476 22480 22484 22488 22492 22496 22500 22504 22508 22512 22516 22520 22524 22528 22532 22536 22540 22544 22548 22552 22556 22560 22564 22568 22572 22576 22580 22584 22588 22592 22596 22600 22604 22608 22612 22616 22620 22624 22628 22632 22636 22640 22644 22648 22652 22656 22660 22664 22668 22672 22676 22680 22684 22688 22692 22696 22700 22704 22708 22712 22716 22720 22724 22728 22732 22736 22740 22744 22748 22752 22756 22760 22764 22768 22772 22776 22780 22784 22788 22792 22796 22800 22804 22808 22812 22816 22820 22824 22828 22832 22836 22840 22844 22848 22852 22856 22860 22864 22868 22872 22876 22880 22884 22888 22892 22896 22900 22904 22908 22912 22916 22920 22924 22928 22932 22936 22940 22944 22948 22952 22956 22960 22964 22968 22972 22976 22980 22984 22988 22992 22996 23000 23004 23008 23012 23016 23020 23024 23028 23032 23036 23040 23044 23048 23052 23056 23060 23064 23068 23072 23076 23080 23084 23088 23092 23096 23100 23104 23108 23112 23116 23120 23124 23128 23132 23136 23140 23144 23148 23152 23156 23160 23164 23168 23172 23176 23180 23184 23188 23192 23196 23200 23204 23208 23212 23216 23220 23224 23228 23232 23236 23240 23244 23248 23252 23256 23260 23264 23268 23272 23276 23280 23284 23288 23292 23296 23300 23304 23308 23312 23316 23320 23324 23328 23332 23336 23340 23344 23348 23352 23356 23360 23364 23368 23372 23376 23380 23384 23388 23392 23396 23400 23404 23408 23412 23416 23420 23424 23428 23432 23436 23440 23444 23448 23452 23456 23460 23464 23468 23472 23476 23480 23484 23488 23492 23496 23500 23504 23508 23512 23516 23520 23524 23528 23532 23536 23540 23544 23548 23552 23556 23560 23564 23568 23572 23576 23580 23584 23588 23592 23596 23600 23604 23608 23612 23616 23620 23624 23628 23632 23636 23640 23644 23648 23652 23656 23660 23664 23668 23672 23676 23680 23684 23688 23692 23696 23700 23704 23708 23712 23716 23720 23724 23728 23732 23736 23740 23744 23748 23752 23756 23760 23764 23768 23772 23776 23780 23784 23788 23792 23796 23800 23804 23808 23812 23816 23820 23824 23828 23832 23836 23840 23844 23848 23852 23856 23860 23864 23868 23872 23876 23880 23884 23888 23892 23896 23900 23904 23908 23912 23916 23920 23924 23928 23932 23936 23940 23944 23948 23952 23956 23960 23964 23968 23972 23976 23980 23984 23988 23992 23996 24000 24004 24008 24012 24016 24020 24024 24028 24032 24036 24040 24044 24048 24052 24056 24060 24064 24068 24072 24076 24080 24084 24088 24092 24096 24100 24104 24108 24112 24116 24120 24124 24128 24132 24136 24140 24144 24148 24152 24156 24160 24164 24168 24172 24176 24180 24184 24188 24192 24196 24200 24204 24208 24212 24216 24220 24224 24228 24232 24236 24240 24244 24248 24252 24256 24260 24264 24268 24272 24276 24280 24284 24288 24292 24296 24300 24304 24308 24312 24316 24320 24324 24328 24332 24336 24340 24344 24348 24352 24356 24360 24364 24368 24372 24376 24380 24384 24388 24392 24396 24400 24404 24408 24412 24416 24420 24424 24428 24432 24436 24440 24444 24448 24452 24456 24460 24464 24468 24472 24476 24480 24484 24488 24492 24496 24500 24504 24508 24512 24516 24520 24524 24528 24532 24536 24540 24544 24548 24552 24556 24560 24564 24568 24572 24576 24580 24584 24588 24592 24596 24600 24604 24608 24612 24616 24620 24624 24628 24632 24636 24640 24644 24648 24652 24656 24660 24664 24668 24672 24676 24680 24684 24688 24692 24696 24700 24704 24708 24712 24716 24720 24724 24728 24732 24736 24740 24744 24748 24752 24756 24760 24764 24768 24772 24776 24780 24784 24788 24792 24796 24800 24804 24808 24812 24816 24820 24824 24828 24832 24836 24840 24844 24848 24852 24856 24860 24864 24868 24872 24876 24880 24884 24888 24892 24896 24900 24904 24908 24912 24916 24920 24924 24928 24932 24936 24940 24944 24948 24952 24956 24960 24964 24968 24972 24976 24980 24984 24988 24992 24996 25000 25004 25008 25012 25016 25020 25024 25028 25032 25036 25040 25044 25048 25052 25056 25060 25064 25068 25072 25076 25080 25084 25088 25092 25096 25100 25104 25108 25112 25116 25120 25124 25128 25132 25136 25140 25144 25148 25152 25156 25160 25164 25168 25172 25176 25180 25184 25188 25192 25196 25200 25204 25208 25212 25216 25220 25224 25228 25232 25236 25240 25244 25248 25252 25256 25260 25264 25268 25272 25276 25280 25284 25288 25292 25296 25300 25304 25308 25312 25316 25320 25324 25328 25332 25336 25340 25344 25348 25352 25356 25360 25364 25368 25372 25376 25380 25384 25388 25392 25396 25400 25404 25408 25412 25416 25420 25424 25428 25432 25436 25440 25444 25448 25452 25456 25460 25464 25468 25472 25476 25480 25484 25488 25492 25496 25500 25504 25508 25512 25516 25520 25524 25528 25532 25536 25540 25544 25548 25552 25556 25560 25564 25568 25572 25576 25580 25584 25588 25592 25596 25600 25604 25608 25612 25616 25620 25624 25628 25632 25636 25640 25644 25648 25652 25656 25660 25664 25668 25672 25676 25680 25684 25688 25692 25696 25700 25704 25708 25712 25716 25720 25724 25728 25732 25736 25740 25744 25748 25752 25756 25760 25764 25768 25772 25776 25780 25784 25788 25792 25796 25800 25804 25808 25812 25816 25820 25824 25828 25832 25836 25840 25844 25848 25852 25856 25860 25864 25868 25872 25876 25880 25884 25888 25892 25896 25900 25904 25908 25912 25916 25920 25924 25928 25932 25936 25940 25944 25948 25952 25956 25960 25964 25968 25972 25976 25980 25984 25988 25992 25996 26000 26004 26008 26012 26016 26020 26024 26028 26032 26036 26040 26044 26048 26052 26056 26060 26064 26068 26072 26076 26080 26084 26088 26092 26096 26100 26104 26108 26112 26116 26120 26124 26128 26132 26136 26140 26144 26148 26152 26156 26160 26164 26168 26172 26176 26180 26184 26188 26192 26196 26200 26204 26208 26212 26216 26220 26224 26228 26232 26236 26240 26244 26248 26252 26256 26260 26264 26268 26272 26276 26280 26284 26288 26292 26296 26300 26304 26308 26312 26316 26320 26324 26328 26332 26336 26340 26344 26348 26352 26356 26360 26364 26368 26372 26376 26380 26384 26388 26392 26396 26400 26404 26408 26412 26416 26420 26424 26428 26432 26436 26440 26444 26448 26452 26456 26460 26464 26468 26472 26476 26480 26484 26488 26492 26496 26500 26504 26508 26512 26516 26520 26524 26528 26532 26536 26540 26544 26548 26552 26556 26560 26564 26568 26572 26576 26580 26584 26588 26592 26596 26600 26604 26608 26612 26616 26620 26624 26628 26632 26636 26640 26644 26648 26652 26656 26660 26664 26668 26672 26676 26680 26684 26688 26692 26696 26700 26704 26708 26712 26716 26720 26724 26728 26732 26736 26740 26744 26748 26752 26756 26760 26764 26768 26772 26776 26780 26784 26788 26792 26796 26800 26804 26808 26812 26816 26820 26824 26828 26832 26836 26840 26844 26848 26852 26856 26860 26864 26868 26872 26876 26880 26884 26888 26892 26896 26900 26904 26908 26912 26916 26920 26924 26928 26932 26936 26940 26944 26948 26952 26956 26960 26964 26968 26972 26976 26980 26984 26988 26992 26996 27000 27004 27008 27012 27016 27020 27024 27028 27032 27036 27040 27044 27048 27052 27056 27060 27064 27068 27072 27076 27080 27084 27088 27092 27096 27100 27104 27108 27112 27116 27120 27124 27128 27132 27136 27140 27144 27148 27152 27156 27160 27164 27168 27172 27176 27180 27184 27188 27192 27196 27200 27204 27208 27212 27216 27220 27224 27228 27232 27236 27240 27244 27248 27252 27256 27260 27264 27268 27272 27276 27280 27284 27288 27292 27296 27300 27304 27308 27312 27316 27320 27324 27328 27332 27336 27340 27344 27348 27352 27356 27360 27364 27368 27372 27376 27380 27384 27388 27392 27396 27400 27404 27408 27412 27416 27420 27424 27428 27432 27436 27440 27444 27448 27452 27456 27460 27464 27468 27472 27476 27480 27484 27488 27492 27496 27500 27504 27508 27512 27516 27520 27524 27528 27532 27536 27540 27544 27548 27552 27556 27560 27564 27568 27572 27576 27580 27584 27588 27592 27596 27600 27604 27608 27612 27616 27620 27624 27628 27632 27636 27640 27644 27648 27652 27656 27660 27664 27668 27672 27676 27680 27684 27688 27692 27696 27700 27704 27708 27712 27716 27720 27724 27728 27732 27736 27740 27744 27748 27752 27756 27760 27764 27768 27772 27776 27780 27784 27788 27792 27796 27800 27804 27808 27812 27816 27820 27824 27828 27832 27836 27840 27844 27848 27852 27856 27860 27864 27868 27872 27876 27880 27884 27888 27892 27896 27900 27904 27908 27912 27916 27920 27924 27928 27932 27936 27940 27944 27948 27952 27956 27960 27964 27968 27972 27976 27980 27984 27988 27992 27996 28000 28004 28008 28012 28016 28020 28024 28028 28032 28036 28040 28044 28048 28052 28056 28060 28064 28068 28072 28076 28080 28084 28088 28092 28096 28100 28104 28108 28112 28116 28120 28124 28128 28132 28136 28140 28144 28148 28152 28156 28160 28164 28168 28172 28176 28180 28184 28188 28192 28196 28200 28204 28208 28212 28216 28220 28224 28228 28232 28236 28240 28244 28248 28252 28256 28260 28264 28268 28272 28276 28280 28284 28288 28292 28296 28300 28304 28308 28312 28316 28320 28324 28328 28332 28336 28340 28344 28348 28352 28356 28360 28364 28368 28372 28376 28380 28384 28388 28392 28396 28400 28404 28408 28412 28416 28420 28424 28428 28432 28436 28440 28444 28448 28452 28456 28460 28464 28468 28472 28476 28480 28484 28488 28492 28496 28500 28504 28508 28512 28516 28520 28524 28528 28532 28536 28540 28544 28548 28552 28556 28560 28564 28568 28572 28576 28580 28584 28588 28592 28596 28600 28604 28608 28612 28616 28620 28624 28628 28632 28636 28640 28644 28648 28652 28656 28660 28664 28668 28672 28676 28680 28684 28688 28692 28696 28700 28704 28708 28712 28716 28720 28724 28728 28732 28736 28740 28744 28748 28752 28756 28760 28764 28768 28772 28776 28780 28784 28788 28792 28796 28800 28804 28808 28812 28816 28820 28824 28828 28832 28836 28840 28844 28848 28852 28856 28860 28864 28868 28872 28876 28880 28884 28888 28892 28896 28900 28904 28908 28912 28916 28920 28924 28928 28932 28936 28940 28944 28948 28952 28956 28960 28964 28968 28972 28976 28980 28984 28988 28992 28996 29000 29004 29008 29012 29016 29020 29024 29028 29032 29036 29040 29044 29048 29052 29056 29060 29064 29068 29072 29076 29080 29084 29088 29092 29096 29100 29104 29108 29112 29116 29120 29124 29128 29132 29136 29140 29144 29148 29152 29156 29160 29164 29168 29172 29176 29180 29184 29188 29192 29196 29200 29204 29208 29212 29216 29220 29224 29228 29232 29236 29240 29244 29248 29252 29256 29260 29264 29268 29272 29276 29280 29284 29288 29292 29296 29300 29304 29308 29312 29316 29320 29324 29328 29332 29336 29340 29344 29348 29352 29356 29360 29364 29368 29372 29376 29380 29384 29388 29392 29396 29400 29404 29408 29412 29416 29420 29424 29428 29432 29436 29440 29444 29448 29452 29456 29460 29464 29468 29472 29476 29480 29484 29488 29492 29496 29500 29504 29508 29512 29516 29520 29524 29528 29532 29536 29540 29544 29548 29552 29556 29560 29564 29568 29572 29576 29580 29584 29588 29592 29596 29600 29604 29608 29612 29616 29620 29624 29628 29632 29636 29640 29644 29648 29652 29656 29660 29664 29668 29672 29676 29680 29684 29688 29692 29696 29700 29704 29708 29712 29716 29720 29724 29728 29732 29736 29740 29744 29748 29752 29756 29760 29764 29768 29772 29776 29780 29784 29788 29792 29796 29800 29804 29808 29812 29816 29820 29824 29828 29832 29836 29840 29844 29848 29852 29856 29860 29864 29868 29872 29876 29880 29884 29888 29892 29896 29900 29904 29908 29912 29916 29920 29924 29928 29932 29936 29940 29944 29948 29952 29956 29960 29964 29968 29972 29976 29980 29984 29988 29992 29996 30000 30004 30008 30012 30016 30020 30024 30028 30032 30036 30040 30044 30048 30052 30056 30060 30064 30068 30072 30076 30080 30084 30088 30092 30096 30100 30104 30108 30112 30116 30120 30124 30128 30132 30136 30140 30144 30148 30152 30156 30160 30164 30168 30172 30176 30180 30184 30188 30192 30196 30200 30204 30208 30212 30216 30220 30224 30228 30232 30236 30240 30244 30248 30252 30256 30260 30264 30268 30272 30276 30280 30284 30288 30292 30296 30300 30304 30308 30312 30316 30320 30324 30328 30332 30336 30340 30344 30348 30352 30356 30360 30364 30368 30372 30376 30380 30384 30388 30392 30396 30400 30404 30408 30412 30416 30420 30424 30428 30432 30436 30440 30444 30448 30452 30456 30460 30464 30468 30472 30476 30480 30484 30488 30492 30496 30500 30504 30508 30512 30516 30520 30524 30528 30532 30536 30540 30544 30548 30552 30556 30560 30564 30568 30572 30576 30580 30584 30588 30592 30596 30600 30604 30608 30612 30616 30620 30624 30628 30632 30636 30640 30644 30648 30652 30656 30660 30664 30668 30672 30676 30680 30684 30688 30692 30696 30700 30704 30708 30712 30716 30720 30724 30728 30732 30736 30740 30744 30748 30752 30756 30760 30764 30768 30772 30776 30780 30784 30788 30792 30796 30800 30804 30808 30812 30816 30820 30824 30828 30832 30836 30840 30844 30848 30852 30856 30860 30864 30868 30872 30876 30880 30884 30888 30892 30896 30900 30904 30908 30912 30916 30920 30924 30928 30932 30936 30940 30944 30948 30952 30956 30960 30964 30968 30972 30976 30980 30984 30988 30992 30996 31000 31004 31008 31012 31016 31020 31024 31028 31032 31036 31040 31044 31048 31052 31056 31060 31064 31068 31072 31076 31080 31084 31088 31092 31096 31100 31104 31108 31112 31116 31120 31124 31128 31132 31136 31140 31144 31148 31152 31156 31160 31164 31168 31172 31176 31180 31184 31188 31192 31196 31200 31204 31208 31212 31216 31220 31224 31228 31232 31236 31240 31244 31248 31252 31256 31260 31264 31268 31272 31276 31280 31284 31288 31292 31296 31300 31304 31308 31312 31316 31320 31324 31328 31332 31336 31340 31344 31348 31352 31356 31360 31364 31368 31372 31376 31380 31384 31388 31392 31396 31400 31404 31408 31412 31416 31420 31424 31428 31432 31436 31440 31444 31448 31452 31456 31460 31464 31468 31472 31476 31480 31484 31488 31492 31496 31500 31504 31508 31512 31516 31520 31524 31528 31532 31536 31540 31544 31548 31552 31556 31560 31564 31568 31572 31576 31580 31584 31588 31592 31596 31600 31604 31608 31612 31616 31620 31624 31628 31632 31636 31640 31644 31648 31652 31656 31660 31664 31668 31672 31676 31680 31684 31688 31692 31696 31700 31704 31708 31712 31716 31720 31724 31728 31732 31736 31740 31744 31748 31752 31756 31760 31764 31768 31772 31776 31780 31784 31788 31792 31796 31800 31804 31808 31812 31816 31820 31824 31828 31832 31836 31840 31844 31848 31852 31856 31860 31864 31868 31872 31876 31880 31884 31888 31892 31896 31900 31904 31908 31912 31916 31920 31924 31928 31932 31936 31940 31944 31948 31952 31956 31960 31964 31968 31972 31976 31980 31984 31988 31992 31996 32000 32004 32008 32012 32016 32020 32024 32028 32032 32036 32040 32044 32048 32052 32056 32060 32064 32068 32072 32076 32080 32084 32088 32092 32096 32100 32104 32108 32112 32116 32120 32124 32128 32132 32136 32140 32144 32148 32152 32156 32160 32164 32168 32172 32176 32180 32184 32188 32192 32196 32200 32204 32208 32212 32216 32220 32224 32228 32232 32236 32240 32244 32248 32252 32256 32260 32264 32268 32272 32276 32280 32284 32288 32292 32296 32300 32304 32308 32312 32316 32320 32324 32328 32332 32336 32340 32344 32348 32352 32356 32360 32364 32368 32372 32376 32380 32384 32388 32392 32396 32400 32404 32408 32412 32416 32420 32424 32428 32432 32436 32440 32444 32448 32452 32456 32460 32464 32468 32472 32476 32480 32484 32488 32492 32496 32500 32504 32508 32512 32516 32520 32524 32528 32532 32536 32540 32544 32548 32552 32556 32560 32564 32568 32572 32576 32580 32584 32588 32592 32596 32600 32604 32608 32612 32616 32620 32624 32628 32632 32636 32640 32644 32648 32652 32656 32660 32664 32668 32672 32676 32680 32684 32688 32692 32696 32700 32704 32708 32712 32716 32720 32724 32728 32732 32736 32740 32744 32748 32752 32756 32760 32764 32768 32772 32776 32780 32784 32788 32792 32796 32800 32804 32808 32812 32816 32820 32824 32828 32832 32836 32840 32844 32848 32852 32856 32860 32864 32868 32872 32876 32880 32884 32888 32892 32896 32900 32904 32908 32912 32916 32920 32924 32928 32932 32936 32940 32944 32948 32952 32956 32960 32964 32968 32972 32976 32980 32984 32988 32992 32996 33000 33004 33008 33012 33016 33020 33024 33028 33032 33036 33040 33044 33048 33052 33056 33060 33064 33068 33072 33076 33080 33084 33088 33092 33096 33100 33104 33108 33112 33116 33120 33124 33128 33132 33136 33140 33144 33148 33152 33156 33160 33164 33168 33172 33176 33180 33184 33188 33192 33196 33200 33204 33208 33212 33216 33220 33224 33228 33232 33236 33240 33244 33248 33252 33256 33260 33264 33268 33272 33276 33280 33284 33288 33292 33296 33300 33304 33308 33312 33316 33320 33324 33328 33332 33336 33340 33344 33348 33352 33356 33360 33364 33368 33372 33376 33380 33384 33388 33392 33396 33400 33404 33408 33412 33416 33420 33424 33428 33432 33436 33440 33444 33448 33452 33456 33460 33464 33468 33472 33476 33480 33484 33488 33492 33496 33500 33504 33508 33512 33516 33520 33524 33528 33532 33536 33540 33544 33548 33552 33556 33560 33564 33568 33572 33576 33580 33584 33588 33592 33596 33600 33604 33608 33612 33616 33620 33624 33628 33632 33636 33640 33644 33648 33652 33656 33660 33664 33668 33672 33676 33680 33684 33688 33692 33696 33700 33704 33708 33712 33716 33720 33724 33728 33732 33736 33740 33744 33748 33752 33756 33760 33764 33768 33772 33776 33780 33784 33788 33792 33796 33800 33804 33808 33812 33816 33820 33824 33828 33832 33836 33840 33844 33848 33852 33856 33860 33864 33868 33872 33876 33880 33884 33888 33892 33896 33900 33904 33908 33912 33916 33920 33924 33928 33932 33936 33940 33944 33948 33952 33956 33960 33964 33968 33972 33976 33980 33984 33988 33992 33996 34000 34004 34008 34012 34016 34020 34024 34028 34032 34036 34040 34044 34048 34052 34056 34060 34064 34068 34072 34076 34080 34084 34088 34092 34096 34100 34104 34108 34112 34116 34120 34124 34128 34132 34136 34140 34144 34148 34152 34156 34160 34164 34168 34172 34176 34180 34184 34188 34192 34196 34200 34204 34208 34212 34216 34220 34224 34228 34232 34236 34240 34244 34248 34252 34256 34260 34264 34268 34272 34276 34280 34284 34288 34292 34296 34300 34304 34308 34312 34316 34320 34324 34328 34332 34336 34340 34344 34348 34352 34356 34360 34364 34368 34372 34376 34380 34384 34388 34392 34396 34400 34404 34408 34412 34416 34420 34424 34428 34432 34436 34440 34444 34448 34452 34456 34460 34464 34468 34472 34476 34480 34484 34488 34492 34496 34500 34504 34508 34512 34516 34520 34524 34528 34532 34536 34540 34544 34548 34552 34556 34560 34564 34568 34572 34576 34580 34584 34588 34592 34596 34600 34604 34608 34612 34616 34620 34624 34628 34632 34636 34640 34644 34648 34652 34656 34660 34664 34668 34672 34676 34680 34684 34688 34692 34696 34700 34704 34708 34712 34716 34720 34724 34728 34732 34736 34740 34744 34748 34752 34756 34760 34764 34768 34772 34776 34780 34784 34788 34792 34796 34800 34804 34808 34812 34816 34820 34824 34828 34832 34836 34840 34844 34848 34852 34856 34860 34864 34868 34872 34876 34880 34884 34888 34892 34896 34900 34904 34908 34912 34916 34920 34924 34928 34932 34936 34940 34944 34948 34952 34956 34960 34964 34968 34972 34976 34980 34984 34988 34992 34996 35000 35004 35008 35012 35016 35020 35024 35028 35032 35036 35040 35044 35048 35052 35056 35060 35064 35068 35072 35076 35080 35084 35088 35092 35096 35100 35104 35108 35112 35116 35120 35124 35128 35132 35136 35140 35144 35148 35152 35156 35160 35164 35168 35172 35176 35180 35184 35188 35192 35196 35200 35204 35208 35212 35216 35220 35224 35228 35232 35236 35240 35244 35248 35252 35256 35260 35264 35268 35272 35276 35280 35284 35288 35292 35296 35300 35304 35308 35312 35316 35320 35324 35328 35332 35336 35340 35344 35348 35352 35356 35360 35364 35368 35372 35376 35380 35384 35388 35392 35396 35400 35404 35408 35412 35416 35420 35424 35428 35432 35436 35440 35444 35448 35452 35456 35460 35464 35468 35472 35476 35480 35484 35488 35492 35496 35500 35504 35508 35512 35516 35520 35524 35528 35532 35536 35540 35544 35548 35552 35556 35560 35564 35568 35572 35576 35580 35584 35588 35592 35596 35600 35604 35608 35612 35616 35620 35624 35628 35632 35636 35640 35644 35648 35652 35656 35660 35664 35668 35672 35676 35680 35684 35688 35692 35696 35700 35704 35708 35712 35716 35720 35724 35728 35732 35736 35740 35744 35748 35752 35756 35760 35764 35768 35772 35776 35780 35784 35788 35792 35796 35800 35804 35808 35812 35816 35820 35824 35828 35832 35836 35840 35844 35848 35852 35856 35860 35864 35868 35872 35876 35880 35884 35888 35892 35896 35900 35904 35908 35912 35916 35920 35924 35928 35932 35936 35940 35944 35948 35952 35956 35960 35964 35968 35972 35976 35980 35984 35988 35992 35996 36000 36004 36008 36012 36016 36020 36024 36028 36032 36036 36040 36044 36048 36052 36056 36060 36064 36068 36072 36076 36080 36084 36088 36092 36096 36100 36104 36108 36112 36116 36120 36124 36128 36132 36136 36140 36144 36148 36152 36156 36160 36164 36168 36172 36176 36180 36184 36188 36192 36196 36200 36204 36208 36212 36216 36220 36224 36228 36232 36236 36240 36244 36248 36252 36256 36260 36264 36268 36272 36276 36280 36284 36288 36292 36296 36300 36304 36308 36312 36316 36320 36324 36328 36332 36336 36340 36344 36348 36352 36356 36360 36364 36368 36372 36376 36380 36384 36388 36392 36396 36400 36404 36408 36412 36416 36420 36424 36428 36432 36436 36440 36444 36448 36452 36456 36460 36464 36468 36472 36476 36480 36484 36488 36492 36496 36500 36504 36508 36512 36516 36520 36524 36528 36532 36536 36540 36544 36548 36552 36556 36560 36564 36568 36572 36576 36580 36584 36588 36592 36596 36600 36604 36608 36612 36616 36620 36624 36628 36632 36636 36640 36644 36648 36652 36656 36660 36664 36668 36672 36676 36680 36684 36688 36692 36696 36700 36704 36708 36712 36716 36720 36724 36728 36732 36736 36740 36744 36748 36752 36756 36760 36764 36768 36772 36776 36780 36784 36788 36792 36796 36800 36804 36808 36812 36816 36820 36824 36828 36832 36836 36840 36844 36848 36852 36856 36860 36864 36868 36872 36876 36880 36884 36888 36892 36896 36900 36904 36908 36912 36916 36920 36924 36928 36932 36936 36940 36944 36948 36952 36956 36960 36964 36968 36972 36976 36980 36984 36988 36992 36996 37000 37004 37008 37012 37016 37020 37024 37028 37032 37036 37040 37044 37048 37052 37056 37060 37064 37068 37072 37076 37080 37084 37088 37092 37096 37100 37104 37108 37112 37116 37120 37124 37128 37132 37136 37140 37144 37148 37152 37156 37160 37164 37168 37172 37176 37180 37184 37188 37192 37196 37200 37204 37208 37212 37216 37220 37224 37228 37232 37236 37240 37244 37248 37252 37256 37260 37264 37268 37272 37276 37280 37284 37288 37292 37296 37300 37304 37308 37312 37316 37320 37324 37328 37332 37336 37340 37344 37348 37352 37356 37360 37364 37368 37372 37376 37380 37384 37388 37392 37396 37400 37404 37408 37412 37416 37420 37424 37428 37432 37436 37440 37444 37448 37452 37456 37460 37464 37468 37472 37476 37480 37484 37488 37492 37496 37500 37504 37508 37512 37516 37520 37524 37528 37532 37536 37540 37544 37548 37552 37556 37560 37564 37568 37572 37576 37580 37584 37588 37592 37596 37600 37604 37608 37612 37616 37620 37624 37628 37632 37636 37640 37644 37648 37652 37656 37660 37664 37668 37672 37676 37680 37684 37688 37692 37696 37700 37704 37708 37712 37716 37720 37724 37728 37732 37736 37740 37744 37748 37752 37756 37760 37764 37768 37772 37776 37780 37784 37788 37792 37796 37800 37804 37808 37812 37816 37820 37824 37828 37832 37836 37840 37844 37848 37852 37856 37860 37864 37868 37872 37876 37880 37884 37888 37892 37896 37900 37904 37908 37912 37916 37920 37924 37928 37932 37936 37940 37944 37948 37952 37956 37960 37964 37968 37972 37976 37980 37984 37988 37992 37996 38000 38004 38008 38012 38016 38020 38024 38028 38032 38036 38040 38044 38048 38052 38056 38060 38064 38068 38072 38076 38080 38084 38088 38092 38096 38100 38104 38108 38112 38116 38120 38124 38128 38132 38136 38140 38144 38148 38152 38156 38160 38164 38168 38172 38176 38180 38184 38188 38192 38196 38200 38204 38208 38212 38216 38220 38224 38228 38232 38236 38240 38244 38248 38252 38256 38260 38264 38268 38272 38276 38280 38284 38288 38292 38296 38300 38304 38308 38312 38316 38320 38324 38328 38332 38336 38340 38344 38348 38352 38356 38360 38364 38368 38372 38376 38380 38384 38388 38392 38396 38400 38404 38408 38412 38416 38420 38424 38428 38432 38436 38440 38444 38448 38452 38456 38460 38464 38468 38472 38476 38480 38484 38488 38492 38496 38500 38504 38508 38512 38516 38520 38524 38528 38532 38536 38540 38544 38548 38552 38556 38560 38564 38568 38572 38576 38580 38584 38588 38592 38596 38600 38604 38608 38612 38616 38620 38624 38628 38632 38636 38640 38644 38648 38652 38656 38660 38664 38668 38672 38676 38680 38684 38688 38692 38696 38700 38704 38708 38712 38716 38720 38724 38728 38732 38736 38740 38744 38748 38752 38756 38760 38764 38768 38772 38776 38780 38784 38788 38792 38796 38800 38804 38808 38812 38816 38820 38824 38828 38832 38836 38840 38844 38848 38852 38856 38860 38864 38868 38872 38876 38880 38884 38888 38892 38896 38900 38904 38908 38912 38916 38920 38924 38928 38932 38936 38940 38944 38948 38952 38956 38960 38964 38968 38972 38976 38980 38984 38988 38992 38996 39000 39004 39008 39012 39016 39020 39024 39028 39032 39036 39040 39044 39048 39052 39056 39060 39064 39068 39072 39076 39080 39084 39088 39092 39096 39100 39104 39108 39112 39116 39120 39124 39128 39132 39136 39140 39144 39148 39152 39156 39160 39164 39168 39172 39176 39180 39184 39188 39192 39196 39200 39204 39208 39212 39216 39220 39224 39228 39232 39236 39240 39244 39248 39252 39256 39260 39264 39268 39272 39276 39280 39284 39288 39292 39296 39300 39304 39308 39312 39316 39320 39324 39328 39332 39336 39340 39344 39348 39352 39356 39360 39364 39368 39372 39376 39380 39384 39388 39392 39396 39400 39404 39408 39412 39416 39420 39424 39428 39432 39436 39440 39444 39448 39452 39456 39460 39464 39468 39472 39476 39480 39484 39488 39492 39496 39500 39504 39508 39512 39516 39520 39524 39528 39532 39536 39540 39544 39548 39552 39556 39560 39564 39568 39572 39576 39580 39584 39588 39592 39596 39600 39604 39608 39612 39616 39620 39624 39628 39632 39636 39640 39644 39648 39652 39656 39660 39664 39668 39672 39676 39680 39684 39688 39692 39696 39700 39704 39708 39712 39716 39720 39724 39728 39732 39736 39740 39744 39748 39752 39756 39760 39764 39768 39772 39776 39780 39784 39788 39792 39796 39800 39804 39808 39812 39816 39820 39824 39828 39832 39836 39840 39844 39848 39852 39856 39860 39864 39868 39872 39876 39880 39884 39888 39892 39896 39900 39904 39908 39912 39916 39920 39924 39928 39932 39936 39940 39944 39948 39952 39956 39960 39964 39968 39972 39976 39980 39984 39988 39992 39996 40000 40004 40008 40012 40016 40020 40024 40028 40032 40036 40040 40044 40048 40052 40056 40060 40064 40068 40072 40076 40080 40084 40088 40092 40096 40100 40104 40108 40112 40116 40120 40124 40128 40132 40136 40140 40144 40148 40152 40156 40160 40164 40168 40172 40176 40180 40184 40188 40192 40196 40200 40204 40208 40212 40216 40220 40224 40228 40232 40236 40240 40244 40248 40252 40256 40260 40264 40268 40272 40276 40280 40284 40288 40292 40296 40300 40304 40308 40312 40316 40320 40324 40328 40332 40336 40340 40344 40348 40352 40356 40360 40364 40368 40372 40376 40380 40384 40388 40392 40396 40400 40404 40408 40412 40416 40420 40424 40428 40432 40436 40440 40444 40448 40452 40456 40460 40464 40468 40472 40476 40480 40484 40488 40492 40496 40500 40504 40508 40512 40516 40520 40524 40528 40532 40536 40540 40544 40548 40552 40556 40560 40564 40568 40572 40576 40580 40584 40588 40592 40596 40600 40604 40608 40612 40616 40620 40624 40628 40632 40636 40640 40644 40648 40652 40656 40660 40664 40668 40672 40676 40680 40684 40688 40692 40696 40700 40704 40708 40712 40716 40720 40724 40728 40732 40736 40740 40744 40748 40752 40756 40760 40764 40768 40772 40776 40780 40784 40788 40792 40796 40800 40804 40808 40812 40816 40820 40824 40828 40832 40836 40840 40844 40848 40852 40856 40860 40864 40868 40872 40876 40880 40884 40888 40892 40896 40900 40904 40908 40912 40916 40920 40924 40928 40932 40936 40940 40944 40948 40952 40956 40960 40964 40968 40972 40976 40980 40984 40988 40992 40996 41000 41004 41008 41012 41016 41020 41024 41028 41032 41036 41040 41044 41048 41052 41056 41060 41064 41068 41072 41076 41080 41084 41088 41092 41096 41100 41104 41108 41112 41116 41120 41124 41128 41132 41136 41140 41144 41148 41152 41156 41160 41164 41168 41172 41176 41180 41184 41188 41192 41196 41200 41204 41208 41212 41216 41220 41224 41228 41232 41236 41240 41244 41248 41252 41256 41260 41264 41268 41272 41276 41280 41284 41288 41292 41296 41300 41304 41308 41312 41316 41320 41324 41328 41332 41336 41340 41344 41348 41352 41356 41360 41364 41368 41372 41376 41380 41384 41388 41392 41396 41400 41404 41408 41412 41416 41420 41424 41428 41432 41436 41440 41444 41448 41452 41456 41460 41464 41468 41472 41476 41480 41484 41488 41492 41496 41500 41504 41508 41512 41516 41520 41524 41528 41532 41536 41540 41544 41548 41552 41556 41560 41564 41568 41572 41576 41580 41584 41588 41592 41596 41600 41604 41608 41612 41616 41620 41624 41628 41632 41636 41640 41644 41648 41652 41656 41660 41664 41668 41672 41676 41680 41684 41688 41692 41696 41700 41704 41708 41712 41716 41720 41724 41728 41732 41736 41740 41744 41748 41752 41756 41760 41764 41768 41772 41776 41780 41784 41788 41792 41796 41800 41804 41808 41812 41816 41820 41824 41828 41832 41836 41840 41844 41848 41852 41856 41860 41864 41868 41872 41876 41880 41884 41888 41892 41896 41900 41904 41908 41912 41916 41920 41924 41928 41932 41936 41940 41944 41948 41952 41956 41960 41964 41968 41972 41976 41980 41984 41988 41992 41996 42000 42004 42008 42012 42016 42020 42024 42028 42032 42036 42040 42044 42048 42052 42056 42060 42064 42068 42072 42076 42080 42084 42088 42092 42096 42100 42104 42108 42112 42116 42120 42124 42128 42132 42136 42140 42144 42148 42152 42156 42160 42164 42168 42172 42176 42180 42184 42188 42192 42196 42200 42204 42208 42212 42216 42220 42224 42228 42232 42236 42240 42244 42248 42252 42256 42260 42264 42268 42272 42276 42280 42284 42288 42292 42296 42300 42304 42308 42312 42316 42320 42324 42328 42332 42336 42340 42344 42348 42352 42356 42360 42364 42368 42372 42376 42380 42384 42388 42392 42396 42400 42404 42408 42412 42416 42420 42424 42428 42432 42436 42440 42444 42448 42452 42456 42460 42464 42468 42472 42476 42480 42484 42488 42492 42496 42500 42504 42508 42512 42516 42520 42524 42528 42532 42536 42540 42544 42548 42552 42556 42560 42564 42568 42572 42576 42580 42584 42588 42592 42596 42600 42604 42608 42612 42616 42620 42624 42628 42632 42636 42640 42644 42648 42652 42656 42660 42664 42668 42672 42676 42680 42684 42688 42692 42696 42700 42704 42708 42712 42716 42720 42724 42728 42732 42736 42740 42744 42748 42752 42756 42760 42764 42768 42772 42776 42780 42784 42788 42792 42796 42800 42804 42808 42812 42816 42820 42824 42828 42832 42836 42840 42844 42848 42852 42856 42860 42864 42868 42872 42876 42880 42884 42888 42892 42896 42900 42904 42908 42912 42916 42920 42924 42928 42932 42936 42940 42944 42948 42952 42956 42960 42964 42968 42972 42976 42980 42984 42988 42992 42996 43000 43004 43008 43012 43016 43020 43024 43028 43032 43036 43040 43044 43048 43052 43056 43060 43064 43068 43072 43076 43080 43084 43088 43092 43096 43100 43104 43108 43112 43116 43120 43124 43128 43132 43136 43140 43144 43148 43152 43156 43160 43164 43168 43172 43176 43180 43184 43188 43192 43196 43200 43204 43208 43212 43216 43220 43224 43228 43232 43236 43240 43244 43248 43252 43256 43260 43264 43268 43272 43276 43280 43284 43288 43292 43296 43300 43304 43308 43312 43316 43320 43324 43328 43332 43336 43340 43344 43348 43352 43356 43360 43364 43368 43372 43376 43380 43384 43388 43392 43396 43400 43404 43408 43412 43416 43420 43424 43428 43432 43436 43440 43444 43448 43452 43456 43460 43464 43468 43472 43476 43480 43484 43488 43492 43496 43500 43504 43508 43512 43516 43520 43524 43528 43532 43536 43540 43544 43548 43552 43556 43560 43564 43568 43572 43576 43580 43584 43588 43592 43596 43600 43604 43608 43612 43616 43620 43624 43628 43632 43636 43640 43644 43648 43652 43656 43660 43664 43668 43672 43676 43680 43684 43688 43692 43696 43700 43704 43708 43712 43716 43720 43724 43728 43732 43736 43740 43744 43748 43752 43756 43760 43764 43768 43772 43776 43780 43784 43788 43792 43796 43800 43804 43808 43812 43816 43820 43824 43828 43832 43836 43840 43844 43848 43852 43856 43860 43864 43868 43872 43876 43880 43884 43888 43892 43896 43900 43904 43908 43912 43916 43920 43924 43928 43932 43936 43940 43944 43948 43952 43956 43960 43964 43968 43972 43976 43980 43984 43988 43992 43996 44000 44004 44008 44012 44016 44020 44024 44028 44032 44036 44040 44044 44048 44052 44056 44060 44064 44068 44072 44076 44080 44084 44088 44092 44096 44100 44104 44108 44112 44116 44120 44124 44128 44132 44136 44140 44144 44148 44152 44156 44160 44164 44168 44172 44176 44180 44184 44188 44192 44196 44200 44204 44208 44212 44216 44220 44224 44228 44232 44236 44240 44244 44248 44252 44256 44260 44264 44268 44272 44276 44280 44284 44288 44292 44296 44300 44304 44308 44312 44316 44320 44324 44328 44332 44336 44340 44344 44348 44352 44356 44360 44364 44368 44372 44376 44380 44384 44388 44392 44396 44400 44404 44408 44412 44416 44420 44424 44428 44432 44436 44440 44444 44448 44452 44456 44460 44464 44468 44472 44476 44480 44484 44488 44492 44496 44500 44504 44508 44512 44516 44520 44524 44528 44532 44536 44540 44544 44548 44552 44556 44560 44564 44568 44572 44576 44580 44584 44588 44592 44596 44600 44604 44608 44612 44616 44620 44624 44628 44632 44636 44640 44644 44648 44652 44656 44660 44664 44668 44672 44676 44680 44684 44688 44692 44696 44700 44704 44708 44712 44716 44720 44724 44728 44732 44736 44740 44744 44748 44752 44756 44760 44764 44768 44772 44776 44780 44784 44788 44792 44796 44800 44804 44808 44812 44816 44820 44824 44828 44832 44836 44840 44844 44848 44852 44856 44860 44864 44868 44872 44876 44880 44884 44888 44892 44896 44900 44904 44908 44912 44916 44920 44924 44928 44932 44936 44940 44944 44948 44952 44956 44960 44964 44968 44972 44976 44980 44984 44988 44992 44996 45000 45004 45008 45012 45016 45020 45024 45028 45032 45036 45040 45044 45048 45052 45056 45060 45064 45068 45072 45076 45080 45084 45088 45092 45096 45100 45104 45108 45112 45116 45120 45124 45128 45132 45136 45140 45144 45148 45152 45156 45160 45164 45168 45172 45176 45180 45184 45188 45192 45196 45200 45204 45208 45212 45216 45220 45224 45228 45232 45236 45240 45244 45248 45252 45256 45260 45264 45268 45272 45276 45280 45284 45288 45292 45296 45300 45304 45308 45312 45316 45320 45324 45328 45332 45336 45340 45344 45348 45352 45356 45360 45364 45368 45372 45376 45380 45384 45388 45392 45396 45400 45404 45408 45412 45416 45420 45424 45428 45432 45436 45440 45444 45448 45452 45456 45460 45464 45468 45472 45476 45480 45484 45488 45492 45496 45500 45504 45508 45512 45516 45520 45524 45528 45532 45536 45540 45544 45548 45552 45556 45560 45564 45568 45572 45576 45580 45584 45588 45592 45596 45600 45604 45608 45612 45616 45620 45624 45628 45632 45636 45640 45644 45648 45652 45656 45660 45664 45668 45672 45676 45680 45684 45688 45692 45696 45700 45704 45708 45712 45716 45720 45724 45728 45732 45736 45740 45744 45748 45752 45756 45760 45764 45768 45772 45776 45780 45784 45788 45792 45796 45800 45804 45808 45812 45816 45820 45824 45828 45832 45836 45840 45844 45848 45852 45856 45860 45864 45868 45872 45876 45880 45884 45888 45892 45896 45900 45904 45908 45912 45916 45920 45924 45928 45932 45936 45940 45944 45948 45952 45956 45960 45964 45968 45972 45976 45980 45984 45988 45992 45996 46000 46004 46008 46012 46016 46020 46024 46028 46032 46036 46040 46044 46048 46052 46056 46060 46064 46068 46072 46076 46080 46084 46088 46092 46096 46100 46104 46108 46112 46116 46120 46124 46128 46132 46136 46140 46144 46148 46152 46156 46160 46164 46168 46172 46176 46180 46184 46188 46192 46196 46200 46204 46208 46212 46216 46220 46224 46228 46232 46236 46240 46244 46248 46252 46256 46260 46264 46268 46272 46276 46280 46284 46288 46292 46296 46300 46304 46308 46312 46316 46320 46324 46328 46332 46336 46340 46344 46348 46352 46356 46360 46364 46368 46372 46376 46380 46384 46388 46392 46396 46400 46404 46408 46412 46416 46420 46424 46428 46432 46436 46440 46444 46448 46452 46456 46460 46464 46468 46472 46476 46480 46484 46488 46492 46496 46500 46504 46508 46512 46516 46520 46524 46528 46532 46536 46540 46544 46548 46552 46556 46560 46564 46568 46572 46576 46580 46584 46588 46592 46596 46600 46604 46608 46612 46616 46620 46624 46628 46632 46636 46640 46644 46648 46652 46656 46660 46664 46668 46672 46676 46680 46684 46688 46692 46696 46700 46704 46708 46712 46716 46720 46724 46728 46732 46736 46740 46744 46748 46752 46756 46760 46764 46768 46772 46776 46780 46784 46788 46792 46796 46800 46804 46808 46812 46816 46820 46824 46828 46832 46836 46840 46844 46848 46852 46856 46860 46864 46868 46872 46876 46880 46884 46888 46892 46896 46900 46904 46908 46912 46916 46920 46924 46928 46932 46936 46940 46944 46948 46952 46956 46960 46964 46968 46972 46976 46980 46984 46988 46992 46996 47000 47004 47008 47012 47016 47020 47024 47028 47032 47036 47040 47044 47048 47052 47056 47060 47064 47068 47072 47076 47080 47084 47088 47092 47096 47100 47104 47108 47112 47116 47120 47124 47128 47132 47136 47140 47144 47148 47152 47156 47160 47164 47168 47172 47176 47180 47184 47188 47192 47196 47200 47204 47208 47212 47216 47220 47224 47228 47232 47236 47240 47244 47248 47252 47256 47260 47264 47268 47272 47276 47280 47284 47288 47292 47296 47300 47304 47308 47312 47316 47320 47324 47328 47332 47336 47340 47344 47348 47352 47356 47360 47364 47368 47372 47376 47380 47384 47388 47392 47396 47400 47404 47408 47412 47416 47420 47424 47428 47432 47436 47440 47444 47448 47452 47456 47460 47464 47468 47472 47476 47480 47484 47488 47492 47496 47500 47504 47508 47512 47516 47520 47524 47528 47532 47536 47540 47544 47548 47552 47556 47560 47564 47568 47572 47576 47580 47584 47588 47592 47596 47600 47604 47608 47612 47616 47620 47624 47628 47632 47636 47640 47644 47648 47652 47656 47660 47664 47668 47672 47676 47680 47684 47688 47692 47696 47700 47704 47708 47712 47716 47720 47724 47728 47732 47736 47740 47744 47748 47752 47756 47760 47764 47768 47772 47776 47780 47784 47788 47792 47796 47800 47804 47808 47812 47816 47820 47824 47828 47832 47836 47840 47844 47848 47852 47856 47860 47864 47868 47872 47876 47880 47884 47888 47892 47896 47900 47904 47908 47912 47916 47920 47924 47928 47932 47936 47940 47944 47948 47952 47956 47960 47964 47968 47972 47976 47980 47984 47988 47992 47996 48000 48004 48008 48012 48016 48020 48024 48028 48032 48036 48040 48044 48048 48052 48056 48060 48064 48068 48072 48076 48080 48084 48088 48092 48096 48100 48104 48108 48112 48116 48120 48124 48128 48132 48136 48140 48144 48148 48152 48156 48160 48164 48168 48172 48176 48180 48184 48188 48192 48196 48200 48204 48208 48212 48216 48220 48224 48228 48232 48236 48240 48244 48248 48252 48256 48260 48264 48268 48272 48276 48280 48284 48288 48292 48296 48300 48304 48308 48312 48316 48320 48324 48328 48332 48336 48340 48344 48348 48352 48356 48360 48364 48368 48372 48376 48380 48384 48388 48392 48396 48400 48404 48408 48412 48416 48420 48424 48428 48432 48436 48440 48444 48448 48452 48456 48460 48464 48468 48472 48476 48480 48484 48488 48492 48496 48500 48504 48508 48512 48516 48520 48524 48528 48532 48536 48540 48544 48548 48552 48556 48560 48564 48568 48572 48576 48580 48584 48588 48592 48596 48600 48604 48608 48612 48616 48620 48624 48628 48632 48636 48640 48644 48648 48652 48656 48660 48664 48668 48672 48676 48680 48684 48688 48692 48696 48700 48704 48708 48712 48716 48720 48724 48728 48732 48736 48740 48744 48748 48752 48756 48760 48764 48768 48772 48776 48780 48784 48788 48792 48796 48800 48804 48808 48812 48816 48820 48824 48828 48832 48836 48840 48844 48848 48852 48856 48860 48864 48868 48872 48876 48880 48884 48888 48892 48896 48900 48904 48908 48912 48916 48920 48924 48928 48932 48936 48940 48944 48948 48952 48956 48960 48964 48968 48972 48976 48980 48984 48988 48992 48996 49000 49004 49008 49012 49016 49020 49024 49028 49032 49036 49040 49044 49048 49052 49056 49060 49064 49068 49072 49076 49080 49084 49088 49092 49096 49100 49104 49108 49112 49116 49120 49124 49128 49132 49136 49140 49144 49148 49152 49156 49160 49164 49168 49172 49176 49180 49184 49188 49192 49196 49200 49204 49208 49212 49216 49220 49224 49228 49232 49236 49240 49244 49248 49252 49256 49260 49264 49268 49272 49276 49280 49284 49288 49292 49296 49300 49304 49308 49312 49316 49320 49324 49328 49332 49336 49340 49344 49348 49352 49356 49360 49364 49368 49372 49376 49380 49384 49388 49392 49396 49400 49404 49408 49412 49416 49420 49424 49428 49432 49436 49440 49444 49448 49452 49456 49460 49464 49468 49472 49476 49480 49484 49488 49492 49496 49500 49504 49508 49512 49516 49520 49524 49528 49532 49536 49540 49544 49548 49552 49556 49560 49564 49568 49572 49576 49580 49584 49588 49592 49596 49600 49604 49608 49612 49616 49620 49624 49628 49632 49636 49640 49644 49648 49652 49656 49660 49664 49668 49672 49676 49680 49684 49688 49692 49696 49700 49704 49708 49712 49716 49720 49724 49728 49732 49736 49740 49744 49748 49752 49756 49760 49764 49768 49772 49776 49780 49784 49788 49792 49796 49800 49804 49808 49812 49816 49820 49824 49828 49832 49836 49840 49844 49848 49852 49856 49860 49864 49868 49872 49876 49880 49884 49888 49892 49896 49900 49904 49908 49912 49916 49920 49924 49928 49932 49936 49940 49944 49948 49952 49956 49960 49964 49968 49972 49976 49980 49984 49988 49992 49996 50000 50004 50008 50012 50016 50020 50024 50028 50032 50036 50040 50044 50048 50052 50056 50060 50064 50068 50072 50076 50080 50084 50088 50092 50096 50100 50104 50108 50112 50116 50120 50124 50128 50132 50136 50140 50144 50148 50152 50156 50160 50164 50168 50172 50176 50180 50184 50188 50192 50196 50200 50204 50208 50212 50216 50220 50224 50228 50232 50236 50240 50244 50248 50252 50256 50260 50264 50268 50272 50276 50280 50284 50288 50292 50296 50300 50304 50308 50312 50316 50320 50324 50328 50332 50336 50340 50344 50348 50352 50356 50360 50364 50368 50372 50376 50380 50384 50388 50392 50396 50400 50404 50408 50412 50416 50420 50424 50428 50432 50436 50440 50444 50448 50452 50456 50460 50464 50468 50472 50476 50480 50484 50488 50492 50496 50500 50504 50508 50512 50516 50520 50524 50528 50532 50536 50540 50544 50548 50552 50556 50560 50564 50568 50572 50576 50580 50584 50588 50592 50596 50600 50604 50608 50612 50616 50620 50624 50628 50632 50636 50640 50644 50648 50652 50656 50660 50664 50668 50672 50676 50680 50684 50688 50692 50696 50700 50704 50708 50712 50716 50720 50724 50728 50732 50736 50740 50744 50748 50752 50756 50760 50764 50768 50772 50776 50780 50784 50788 50792 50796 50800 50804 50808 50812 50816 50820 50824 50828 50832 50836 50840 50844 50848 50852 50856 50860 50864 50868 50872 50876 50880 50884 50888 50892 50896 50900 50904 50908 50912 50916 50920 50924 50928 50932 50936 50940 50944 50948 50952 50956 50960 50964 50968 50972 50976 50980 50984 50988 50992 50996 51000 51004 51008 51012 51016 51020 51024 51028 51032 51036 51040 51044 51048 51052 51056 51060 51064 51068 51072 51076 51080 51084 51088 51092 51096 51100 51104 51108 51112 51116 51120 51124 51128 51132 51136 51140 51144 51148 51152 51156 51160 51164 51168 51172 51176 51180 51184 51188 51192 51196 51200 51204 51208 51212 51216 51220 51224 51228 51232 51236 51240 51244 51248 51252 51256 51260 51264 51268 51272 51276 51280 51284 51288 51292 51296 51300 51304 51308 51312 51316 51320 51324 51328 51332 51336 51340 51344 51348 51352 51356 51360 51364 51368 51372 51376 51380 51384 51388 51392 51396 51400 51404 51408 51412 51416 51420 51424 51428 51432 51436 51440 51444 51448 51452 51456 51460 51464 51468 51472 51476 51480 51484 51488 51492 51496 51500 51504 51508 51512 51516 51520 51524 51528 51532 51536 51540 51544 51548 51552 51556 51560 51564 51568 51572 51576 51580 51584 51588 51592 51596 51600 51604 51608 51612 51616 51620 51624 51628 51632 51636 51640 51644 51648 51652 51656 51660 51664 51668 51672 51676 51680 51684 51688 51692 51696 51700 51704 51708 51712 51716 51720 51724 51728 51732 51736 51740 51744 51748 51752 51756 51760 51764 51768 51772 51776 51780 51784 51788 51792 51796 51800 51804 51808 51812 51816 51820 51824 51828 51832 51836 51840 51844 51848 51852 51856 51860 51864 51868 51872 51876 51880 51884 51888 51892 51896 51900 51904 51908 51912 51916 51920 51924 51928 51932 51936 51940 51944 51948 51952 51956 51960 51964 51968 51972 51976 51980 51984 51988 51992 51996 52000 52004 52008 52012 52016 52020 52024 52028 52032 52036 52040 52044 52048 52052 52056 52060 52064 52068 52072 52076 52080 52084 52088 52092 52096 52100 52104 52108 52112 52116 52120 52124 52128 52132 52136 52140 52144 52148 52152 52156 52160 52164 52168 52172 52176 52180 52184 52188 52192 52196 52200 52204 52208 52212 52216 52220 52224 52228 52232 52236 52240 52244 52248 52252 52256 52260 52264 52268 52272 52276 52280 52284 52288 52292 52296 52300 52304 52308 52312 52316 52320 52324 52328 52332 52336 52340 52344 52348 52352 52356 52360 52364 52368 52372 52376 52380 52384 52388 52392 52396 52400 52404 52408 52412 52416 52420 52424 52428 52432 52436 52440 52444 52448 52452 52456 52460 52464 52468 52472 52476 52480 52484 52488 52492 52496 52500 52504 52508 52512 52516 52520 52524 52528 52532 52536 52540 52544 52548 52552 52556 52560 52564 52568 52572 52576 52580 52584 52588 52592 52596 52600 52604 52608 52612 52616 52620 52624 52628 52632 52636 52640 52644 52648 52652 52656 52660 52664 52668 52672 52676 52680 52684 52688 52692 52696 52700 52704 52708 52712 52716 52720 52724 52728 52732 52736 52740 52744 52748 52752 52756 52760 52764 52768 52772 52776 52780 52784 52788 52792 52796 52800 52804 52808 52812 52816 52820 52824 52828 52832 52836 52840 52844 52848 52852 52856 52860 52864 52868 52872 52876 52880 52884 52888 52892 52896 52900 52904 52908 52912 52916 52920 52924 52928 52932 52936 52940 52944 52948 52952 52956 52960 52964 52968 52972 52976 52980 52984 52988 52992 52996 53000 53004 53008 53012 53016 53020 53024 53028 53032 53036 53040 53044 53048 53052 53056 53060 53064 53068 53072 53076 53080 53084 53088 53092 53096 53100 53104 53108 53112 53116 53120 53124 53128 53132 53136 53140 53144 53148 53152 53156 53160 53164 53168 53172 53176 53180 53184 53188 53192 53196 53200 53204 53208 53212 53216 53220 53224 53228 53232 53236 53240 53244 53248 53252 53256 53260 53264 53268 53272 53276 53280 53284 53288 53292 53296 53300 53304 53308 53312 53316 53320 53324 53328 53332 53336 53340 53344 53348 53352 53356 53360 53364 53368 53372 53376 53380 53384 53388 53392 53396 53400 53404 53408 53412 53416 53420 53424 53428 53432 53436 53440 53444 53448 53452 53456 53460 53464 53468 53472 53476 53480 53484 53488 53492 53496 53500 53504 53508 53512 53516 53520 53524 53528 53532 53536 53540 53544 53548 53552 53556 53560 53564 53568 53572 53576 53580 53584 53588 53592 53596 53600 53604 53608 53612 53616 53620 53624 53628 53632 53636 53640 53644 53648 53652 53656 53660 53664 53668 53672 53676 53680 53684 53688 53692 53696 53700 53704 53708 53712 53716 53720 53724 53728 53732 53736 53740 53744 53748 53752 53756 53760 53764 53768 53772 53776 53780 53784 53788 53792 53796 53800 53804 53808 53812 53816 53820 53824 53828 53832 53836 53840 53844 53848 53852 53856 53860 53864 53868 53872 53876 53880 53884 53888 53892 53896 53900 53904 53908 53912 53916 53920 53924 53928 53932 53936 53940 53944 53948 53952 53956 53960 53964 53968 53972 53976 53980 53984 53988 53992 53996 54000 54004 54008 54012 54016 54020 54024 54028 54032 54036 54040 54044 54048 54052 54056 54060 54064 54068 54072 54076 54080 54084 54088 54092 54096 54100 54104 54108 54112 54116 54120 54124 54128 54132 54136 54140 54144 54148 54152 54156 54160 54164 54168 54172 54176 54180 54184 54188 54192 54196 54200 54204 54208 54212 54216 54220 54224 54228 54232 54236 54240 54244 54248 54252 54256 54260 54264 54268 54272 54276 54280 54284 54288 54292 54296 54300 54304 54308 54312 54316 54320 54324 54328 54332 54336 54340 54344 54348 54352 54356 54360 54364 54368 54372 54376 54380 54384 54388 54392 54396 54400 54404 54408 54412 54416 54420 54424 54428 54432 54436 54440 54444 54448 54452 54456 54460 54464 54468 54472 54476 54480 54484 54488 54492 54496 54500 54504 54508 54512 54516 54520 54524 54528 54532 54536 54540 54544 54548 54552 54556 54560 54564 54568 54572 54576 54580 54584 54588 54592 54596 54600 54604 54608 54612 54616 54620 54624 54628 54632 54636 54640 54644 54648 54652 54656 54660 54664 54668 54672 54676 54680 54684 54688 54692 54696 54700 54704 54708 54712 54716 54720 54724 54728 54732 54736 54740 54744 54748 54752 54756 54760 54764 54768 54772 54776 54780 54784 54788 54792 54796 54800 54804 54808 54812 54816 54820 54824 54828 54832 54836 54840 54844 54848 54852 54856 54860 54864 54868 54872 54876 54880 54884 54888 54892 54896 54900 54904 54908 54912 54916 54920 54924 54928 54932 54936 54940 54944 54948 54952 54956 54960 54964 54968 54972 54976 54980 54984 54988 54992 54996 55000 55004 55008 55012 55016 55020 55024 55028 55032 55036 55040 55044 55048 55052 55056 55060 55064 55068 55072 55076 55080 55084 55088 55092 55096 55100 55104 55108 55112 55116 55120 55124 55128 55132 55136 55140 55144 55148 55152 55156 55160 55164 55168 55172 55176 55180 55184 55188 55192 55196 55200 55204 55208 55212 55216 55220 55224 55228 55232 55236 55240 55244 55248 55252 55256 55260 55264 55268 55272 55276 55280 55284 55288 55292 55296 55300 55304 55308 55312 55316 55320 55324 55328 55332 55336 55340 55344 55348 55352 55356 55360 55364 55368 55372 55376 55380 55384 55388 55392 55396 55400 55404 55408 55412 55416 55420 55424 55428 55432 55436 55440 55444 55448 55452 55456 55460 55464 55468 55472 55476 55480 55484 55488 55492 55496 55500 55504 55508 55512 55516 55520 55524 55528 55532 55536 55540 55544 55548 55552 55556 55560 55564 55568 55572 55576 55580 55584 55588 55592 55596 55600 55604 55608 55612 55616 55620 55624 55628 55632 55636 55640 55644 55648 55652 55656 55660 55664 55668 55672 55676 55680 55684 55688 55692 55696 55700 55704 55708 55712 55716 55720 55724 55728 55732 55736 55740 55744 55748 55752 55756 55760 55764 55768 55772 55776 55780 55784 55788 55792 55796 55800 55804 55808 55812 55816 55820 55824 55828 55832 55836 55840 55844 55848 55852 55856 55860 55864 55868 55872 55876 55880 55884 55888 55892 55896 55900 55904 55908 55912 55916 55920 55924 55928 55932 55936 55940 55944 55948 55952 55956 55960 55964 55968 55972 55976 55980 55984 55988 55992 55996 56000 56004 56008 56012 56016 56020 56024 56028 56032 56036 56040 56044 56048 56052 56056 56060 56064 56068 56072 56076 56080 56084 56088 56092 56096 56100 56104 56108 56112 56116 56120 56124 56128 56132 56136 56140 56144 56148 56152 56156 56160 56164 56168 56172 56176 56180 56184 56188 56192 56196 56200 56204 56208 56212 56216 56220 56224 56228 56232 56236 56240 56244 56248 56252 56256 56260 56264 56268 56272 56276 56280 56284 56288 56292 56296 56300 56304 56308 56312 56316 56320 56324 56328 56332 56336 56340 56344 56348 56352 56356 56360 56364 56368 56372 56376 56380 56384 56388 56392 56396 56400 56404 56408 56412 56416 56420 56424 56428 56432 56436 56440 56444 56448 56452 56456 56460 56464 56468 56472 56476 56480 56484 56488 56492 56496 56500 56504 56508 56512 56516 56520 56524 56528 56532 56536 56540 56544 56548 56552 56556 56560 56564 56568 56572 56576 56580 56584 56588 56592 56596 56600 56604 56608 56612 56616 56620 56624 56628 56632 56636 56640 56644 56648 56652 56656 56660 56664 56668 56672 56676 56680 56684 56688 56692 56696 56700 56704 56708 56712 56716 56720 56724 56728 56732 56736 56740 56744 56748 56752 56756 56760 56764 56768 56772 56776 56780 56784 56788 56792 56796 56800 56804 56808 56812 56816 56820 56824 56828 56832 56836 56840 56844 56848 56852 56856 56860 56864 56868 56872 56876 56880 56884 56888 56892 56896 56900 56904 56908 56912 56916 56920 56924 56928 56932 56936 56940 56944 56948 56952 56956 56960 56964 56968 56972 56976 56980 56984 56988 56992 56996 57000 57004 57008 57012 57016 57020 57024 57028 57032 57036 57040 57044 57048 57052 57056 57060 57064 57068 57072 57076 57080 57084 57088 57092 57096 57100 57104 57108 57112 57116 57120 57124 57128 57132 57136 57140 57144 57148 57152 57156 57160 57164 57168 57172 57176 57180 57184 57188 57192 57196 57200 57204 57208 57212 57216 57220 57224 57228 57232 57236 57240 57244 57248 57252 57256 57260 57264 57268 57272 57276 57280 57284 57288 57292 57296 57300 57304 57308 57312 57316 57320 57324 57328 57332 57336 57340 57344 57348 57352 57356 57360 57364 57368 57372 57376 57380 57384 57388 57392 57396 57400 57404 57408 57412 57416 57420 57424 57428 57432 57436 57440 57444 57448 57452 57456 57460 57464 57468 57472 57476 57480 57484 57488 57492 57496 57500 57504 57508 57512 57516 57520 57524 57528 57532 57536 57540 57544 57548 57552 57556 57560 57564 57568 57572 57576 57580 57584 57588 57592 57596 57600 57604 57608 57612 57616 57620 57624 57628 57632 57636 57640 57644 57648 57652 57656 57660 57664 57668 57672 57676 57680 57684 57688 57692 57696 57700 57704 57708 57712 57716 57720 57724 57728 57732 57736 57740 57744 57748 57752 57756 57760 57764 57768 57772 57776 57780 57784 57788 57792 57796 57800 57804 57808 57812 57816 57820 57824 57828 57832 57836 57840 57844 57848 57852 57856 57860 57864 57868 57872 57876 57880 57884 57888 57892 57896 57900 57904 57908 57912 57916 57920 57924 57928 57932 57936 57940 57944 57948 57952 57956 57960 57964 57968 57972 57976 57980 57984 57988 57992 57996 58000 58004 58008 58012 58016 58020 58024 58028 58032 58036 58040 58044 58048 58052 58056 58060 58064 58068 58072 58076 58080 58084 58088 58092 58096 58100 58104 58108 58112 58116 58120 58124 58128 58132 58136 58140 58144 58148 58152 58156 58160 58164 58168 58172 58176 58180 58184 58188 58192 58196 58200 58204 58208 58212 58216 58220 58224 58228 58232 58236 58240 58244 58248 58252 58256 58260 58264 58268 58272 58276 58280 58284 58288 58292 58296 58300 58304 58308 58312 58316 58320 58324 58328 58332 58336 58340 58344 58348 58352 58356 58360 58364 58368 58372 58376 58380 58384 58388 58392 58396 58400 58404 58408 58412 58416 58420 58424 58428 58432 58436 58440 58444 58448 58452 58456 58460 58464 58468 58472 58476 58480 58484 58488 58492 58496 58500 58504 58508 58512 58516 58520 58524 58528 58532 58536 58540 58544 58548 58552 58556 58560 58564 58568 58572 58576 58580 58584 58588 58592 58596 58600 58604 58608 58612 58616 58620 58624 58628 58632 58636 58640 58644 58648 58652 58656 58660 58664 58668 58672 58676 58680 58684 58688 58692 58696 58700 58704 58708 58712 58716 58720 58724 58728 58732 58736 58740 58744 58748 58752 58756 58760 58764 58768 58772 58776 58780 58784 58788 58792 58796 58800 58804 58808 58812 58816 58820 58824 58828 58832 58836 58840 58844 58848 58852 58856 58860 58864 58868 58872 58876 58880 58884 58888 58892 58896 58900 58904 58908 58912 58916 58920 58924 58928 58932 58936 58940 58944 58948 58952 58956 58960 58964 58968 58972 58976 58980 58984 58988 58992 58996 59000 59004 59008 59012 59016 59020 59024 59028 59032 59036 59040 59044 59048 59052 59056 59060 59064 59068 59072 59076 59080 59084 59088 59092 59096 59100 59104 59108 59112 59116 59120 59124 59128 59132 59136 59140 59144 59148 59152 59156 59160 59164 59168 59172 59176 59180 59184 59188 59192 59196 59200 59204 59208 59212 59216 59220 59224 59228 59232 59236 59240 59244 59248 59252 59256 59260 59264 59268 59272 59276 59280 59284 59288 59292 59296 59300 59304 59308 59312 59316 59320 59324 59328 59332 59336 59340 59344 59348 59352 59356 59360 59364 59368 59372 59376 59380 59384 59388 59392 59396 59400
</DataArray>
<DataArray Name="types" type="Int32" format="ascii" >
 9 9 9 9 9 9 9 9 9 9 9 9 9 9 9 9 9 9 9 9 9 9 9 9 9 9 9 9 9 9 9 9 9 9 9 9 9 9 9 9 9 9 9 9 9 9 9 9 9 9 9 9 9 9 9 9 9 9 9 9 9 9 9 9 9 9 9 9 9 9 9 9 9 9 9 9 9 9 9 9 9 9 9 9 9 9 9 9 9 9 9 9 9 9 9 9 9 9 9 9 9 9 9 9 9 9 9 9 9 9 9 9 9 9 9 9 9 9 9 9 9 9 9 9 9 9 9 9 9 9 9 9 9 9 9 9 9 9 9 9 9 9 9 9 9 9 9 9 9 9 9 9 9 9 9 9 9 9 9 9 9 9 9 9 9 9 9 9 9 9 9 9 9 9 9 9 9 9 9 9 9 9 9 9 9 9 9 9 9 9 9 9 9 9 9 9 9 9 9 9 9 9 9 9 9 9 9 9 9 9 9 9 9 9 9 9 9 9 9 9 9 9 9 9 9 9 9 9 9 9 9 9 9 9 9 9 9 9 9 9 9 9 9 9 9 9 9 9 9 9 9 9 9 9 9 9 9 9 9 9 9 9 9 9 9 9 9 9 9 9 9 9 9 9 9 9 9 9 9 9 9 9 9 9 9 9 9 9 9 9 9 9 9 9 9 9 9 9 9 9 9 9 9 9 9 9 9 9 9 9 9 9 9 9 9 9 9 9 9 9 9 9 9 9 9 9 9 9 9 9 9 9 9 9 9 9 9 9 9 9 9 9 9 9 9 9 9 9 9 9 9 9 9 9 9 9 9 9 9 9 9 9 9 9 9 9 9 9 9 9 9 9 9 9 9 9 9 9 9 9 9 9 9 9 9 9 9 9 9 9 9 9 9 9 9 9 9 9 9 9 9 9 9 9 9 9 9 9 9 9 9 9 9 9 9 9 9 9 9 9 9 9 9 9 9 9 9 9 9 9 9 9 9 9 9 9 9 9 9 9 9 9 9 9 9 9 9 9 9 9 9 9 9 9 9 9 9 9 9 9 9 9 9 9 9 9 9 9 9 9 9 9 9 9 9 9 9 9 9 9 9 9 9 9 9 9 9 9 9 9 9 9 9 9 9 9 9 9 9 9 9 9 9 9 9 9 9 9 9 9 9 9 9 9 9 9 9 9 9 9 9 9 9 9 9 9 9 9 9 9 9 9 9 9 9 9 9 9 9 9 9 9 9 9 9 9 9 9 9 9 9 9 9 9 9 9 9 9 9 9 9 9 9 9 9 9 9 9 9 9 9 9 9 9 9 9 9 9 9 9 9 9 9 9 9 9 9 9 9 9 9 9 9 9 9 9 9 9 9 9 9 9 9 9 9 9 9 9 9 9 9 9 9 9 9 9 9 9 9 9 9 9 9 9 9 9 9 9 9 9 9 9 9 9 9 9 9 9 9 9 9 9 9 9 9 9 9 9 9 9 9 9 9 9 9 9 9 9 9 9 9 9 9 9 9 9 9 9 9 9 9 9 9 9 9 9 9 9 9 9 9 9 9 9 9 9 9 9 9 9 9 9 9 9 9 9 9 9 9 9 9 9 9 9 9 9 9 9 9 9 9 9 9 9 9 9 9 9 9 9 9 9 9 9 9 9 9 9 9 9 9 9 9 9 9 9 9 9 9 9 9 9 9 9 9 9 9 9 9 9 9 9 9 9 9 9 9 9 9 9 9 9 9 9 9 9 9 9 9 9 9 9 9 9 9 9 9 9 9 9 9 9 9 9 9 9 9 9 9 9 9 9 9 9 9 9 9 9 9 9 9 9 9 9 9 9 9 9 9 9 9 9 9 9 9 9 9 9 9 9 9 9 9 9 9 9 9 9 9 9 9 9 9 9 9 9 9 9 9 9 9 9 9 9 9 9 9 9 9 9 9 9 9 9 9 9 9 9 9 9 9 9 9 9 9 9 9 9 9 9 9 9 9 9 9 9 9 9 9 9 9 9 9 9 9 9 9 9 9 9 9 9 9 9 9 9 9 9 9 9 9 9 9 9 9 9 9 9 9 9 9 9 9 9 9 9 9 9 9 9 9 9 9 9 9 9 9 9 9 9 9 9 9 9 9 9 9 9 9 9 9 9 9 9 9 9 9 9 9 9 9 9 9 9 9 9 9 9 9 9 9 9 9 9 9 9 9 9 9 9 9 9 9 9 9 9 9 9 9 9 9 9 9 9 9 9 9 9 9 9 9 9 9 9 9 9 9 9 9 9 9 9 9 9 9 9 9 9 9 9 9 9 9 9 9 9 9 9 9 9 9 9 9 9 9 9 9 9 9 9 9 9 9 9 9 9 9 9 9 9 9 9 9 9 9 9 9 9 9 9 9 9 9 9 9 9 9 9 9 9 9 9 9 9 9 9 9 9 9 9 9 9 9 9 9 9 9 9 9 9 9 9 9 9 9 9 9 9 9 9 9 9 9 9 9 9 9 9 9 9 9 9 9 9 9 9 9 9 9 9 9 9 9 9 9 9 9 9 9 9 9 9 9 9 9 9 9 9 9 9 9 9 9 9 9 9 9 9 9 9 9 9 9 9 9 9 9 9 9 9 9 9 9 9 9 9 9 9 9 9 9 9 9 9 9 9 9 9 9 9 9 9 9 9 9 9 9 9 9 9 9 9 9 9 9 9 9 9 9 9 9 9 9 9 9 9 9 9 9 9 9 9 9 9 9 9 9 9 9 9 9 9 9 9 9 9 9 9 9 9 9 9 9 9 9 9 9 9 9 9 9 9 9 9 9 9 9 9 9 9 9 9 9 9 9 9 9 9 9 9 9 9 9 9 9 9 9 9 9 9 9 9 9 9 9 9 9 9 9 9 9 9 9 9 9 9 9 9 9 9 9 9 9 9 9 9 9 9 9 9 9 9 9 9 9 9 9 9 9 9 9 9 9 9 9 9 9 9 9 9 9 9 9 9 9 9 9 9 9 9 9 9 9 9 9 9 9 9 9 9 9 9 9 9 9 9 9 9 9 9 9 9 9 9 9 9 9 9 9 9 9 9 9 9 9 9 9 9 9 9 9 9 9 9 9 9 9 9 9 9 9 9 9 9 9 9 9 9 9 9 9 9 9 9 9 9 9 9 9 9 9 9 9 9 9 9 9 9 9 9 9 9 9 9 9 9 9 9 9 9 9 9 9 9 9 9 9 9 9 9 9 9 9 9 9 9 9 9 9 9 9 9 9 9 9 9 9 9 9 9 9 9 9 9 9 9 9 9 9 9 9 9 9 9 9 9 9 9 9 9 9 9 9 9 9 9 9 9 9 9 9 9 9 9 9 9 9 9 9 9 9 9 9 9 9 9 9 9 9 9 9 9 9 9 9 9 9 9 9 9 9 9 9 9 9 9 9 9 9 9 9 9 9 9 9 9 9 9 9 9 9 9 9 9 9 9 9 9 9 9 9 9 9 9 9 9 9 9 9 9 9 9 9 9 9 9 9 9 9 9 9 9 9 9 9 9 9 9 9 9 9 9 9 9 9 9 9 9 9 9 9 9 9 9 9 9 9 9 9 9 9 9 9 9 9 9 9 9 9 9 9 9 9 9 9 9 9 9 9 9 9 9 9 9 9 9 9 9 9 9 9 9 9 9 9 9 9 9 9 9 9 9 9 9 9 9 9 9 9 9 9 9 9 9 9 9 9 9 9 9 9 9 9 9 9 9 9 9 9 9 9 9 9 9 9 9 9 9 9 9 9 9 9 9 9 9 9 9 9 9 9 9 9 9 9 9 9 9 9 9 9 9 9 9 9 9 9 9 9 9 9 9 9 9 9 9 9 9 9 9 9 9 9 9 9 9 9 9 9 9 9 9 9 9 9 9 9 9 9 9 9 9 9 9 9 9 9 9 9 9 9 9 9 9 9 9 9 9 9 9 9 9 9 9 9 9 9 9 9 9 9 9 9 9 9 9 9 9 9 9 9 9 9 9 9 9 9 9 9 9 9 9 9 9 9 9 9 9 9 9 9 9 9 9 9 9 9 9 9 9 9 9 9 9 9 9 9 9 9 9 9 9 9 9 9 9 9 9 9 9 9 9 9 9 9 9 9 9 9 9 9 9 9 9 9 9 9 9 9 9 9 9 9 9 9 9 9 9 9 9 9 9 9 9 9 9 9 9 9 9 9 9 9 9 9 9 9 9 9 9 9 9 9 9 9 9 9 9 9 9 9 9 9 9 9 9 9 9 9 9 9 9 9 9 9 9 9 9 9 9 9 9 9 9 9 9 9 9 9 9 9 9 9 9 9 9 9 9 9 9 9 9 9 9 9 9 9 9 9 9 9 9 9 9 9 9 9 9 9 9 9 9 9 9 9 9 9 9 9 9 9 9 9 9 9 9 9 9 9 9 9 9 9 9 9 9 9 9 9 9 9 9 9 9 9 9 9 9 9 9 9 9 9 9 9 9 9 9 9 9 9 9 9 9 9 9 9 9 9 9 9 9 9 9 9 9 9 9 9 9 9 9 9 9 9 9 9 9 9 9 9 9 9 9 9 9 9 9 9 9 9 9 9 9 9 9 9 9 9 9 9 9 9 9 9 9 9 9 9 9 9 9 9 9 9 9 9 9 9 9 9 9 9 9 9 9 9 9 9 9 9 9 9 9 9 9 9 9 9 9 9 9 9 9 9 9 9 9 9 9 9 9 9 9 9 9 9 9 9 9 9 9 9 9 9 9 9 9 9 9 9 9 9 9 9 9 9 9 9 9 9 9 9 9 9 9 9 9 9 9 9 9 9 9 9 9 9 9 9 9 9 9 9 9 9 9 9 9 9 9 9 9 9 9 9 9 9 9 9 9 9 9 9 9 9 9 9 9 9 9 9 9 9 9 9 9 9 9 9 9 9 9 9 9 9 9 9 9 9 9 9 9 9 9 9 9 9 9 9 9 9 9 9 9 9 9 9 9 9 9 9 9 9 9 9 9 9 9 9 9 9 9 9 9 9 9 9 9 9 9 9 9 9 9 9 9 9 9 9 9 9 9 9 9 9 9 9 9 9 9 9 9 9 9 9 9 9 9 9 9 9 9 9 9 9 9 9 9 9 9 9 9 9 9 9 9 9 9 9 9 9 9 9 9 9 9 9 9 9 9 9 9 9 9 9 9 9 9 9 9 9 9 9 9 9 9 9 9 9 9 9 9 9 9 9 9 9 9 9 9 9 9 9 9 9 9 9 9 9 9 9 9 9 9 9 9 9 9 9 9 9 9 9 9 9 9 9 9 9 9 9 9 9 9 9 9 9 9 9 9 9 9 9 9 9 9 9 9 9 9 9 9 9 9 9 9 9 9 9 9 9 9 9 9 9 9 9 9 9 9 9 9 9 9 9 9 9 9 9 9 9 9 9 9 9 9 9 9 9 9 9 9 9 9 9 9 9 9 9 9 9 9 9 9 9 9 9 9 9 9 9 9 9 9 9 9 9 9 9 9 9 9 9 9 9 9 9 9 9 9 9 9 9 9 9 9 9 9 9 9 9 9 9 9 9 9 9 9 9 9 9 9 9 9 9 9 9 9 9 9 9 9 9 9 9 9 9 9 9 9 9 9 9 9 9 9 9 9 9 9 9 9 9 9 9 9 9 9 9 9 9 9 9 9 9 9 9 9 9 9 9 9 9 9 9 9 9 9 9 9 9 9 9 9 9 9 9 9 9 9 9 9 9 9 9 9 9 9 9 9 9 9 9 9 9 9 9 9 9 9 9 9 9 9 9 9 9 9 9 9 9 9 9 9 9 9 9 9 9 9 9 9 9 9 9 9 9 9 9 9 9 9 9 9 9 9 9 9 9 9 9 9 9 9 9 9 9 9 9 9 9 9 9 9 9 9 9 9 9 9 9 9 9 9 9 9 9 9 9 9 9 9 9 9 9 9 9 9 9 9 9 9 9 9 9 9 9 9 9 9 9 9 9 9 9 9 9 9 9 9 9 9 9 9 9 9 9 9 9 9 9 9 9 9 9 9 9 9 9 9 9 9 9 9 9 9 9 9 9 9 9 9 9 9 9 9 9 9 9 9 9 9 9 9 9 9 9 9 9 9 9 9 9 9 9 9 9 9 9 9 9 9 9 9 9 9 9 9 9 9 9 9 9 9 9 9 9 9 9 9 9 9 9 9 9 9 9 9 9 9 9 9 9 9 9 9 9 9 9 9 9 9 9 9 9 9 9 9 9 9 9 9 9 9 9 9 9 9 9 9 9 9 9 9 9 9 9 9 9 9 9 9 9 9 9 9 9 9 9 9 9 9 9 9 9 9 9 9 9 9 9 9 9 9 9 9 9 9 9 9 9 9 9 9 9 9 9 9 9 9 9 9 9 9 9 9 9 9 9 9 9 9 9 9 9 9 9 9 9 9 9 9 9 9 9 9 9 9 9 9 9 9 9 9 9 9 9 9 9 9 9 9 9 9 9 9 9 9 9 9 9 9 9 9 9 9 9 9 9 9 9 9 9 9 9 9 9 9 9 9 9 9 9 9 9 9 9 9 9 9 9 9 9 9 9 9 9 9 9 9 9 9 9 9 9 9 9 9 9 9 9 9 9 9 9 9 9 9 9 9 9 9 9 9 9 9 9 9 9 9 9 9 9 9 9 9 9 9 9 9 9 9 9 9 9 9 9 9 9 9 9 9 9 9 9 9 9 9 9 9 9 9 9 9 9 9 9 9 9 9 9 9 9 9 9 9 9 9 9 9 9 9 9 9 9 9 9 9 9 9 9 9 9 9 9 9 9 9 9 9 9 9 9 9 9 9 9 9 9 9 9 9 9 9 9 9 9 9 9 9 9 9 9 9 9 9 9 9 9 9 9 9 9 9 9 9 9 9 9 9 9 9 9 9 9 9 9 9 9 9 9 9 9 9 9 9 9 9 9 9 9 9 9 9 9 9 9 9 9 9 9 9 9 9 9 9 9 9 9 9 9 9 9 9 9 9 9 9 9 9 9 9 9 9 9 9 9 9 9 9 9 9 9 9 9 9 9 9 9 9 9 9 9 9 9 9 9 9 9 9 9 9 9 9 9 9 9 9 9 9 9 9 9 9 9 9 9 9 9 9 9 9 9 9 9 9 9 9 9 9 9 9 9 9 9 9 9 9 9 9 9 9 9 9 9 9 9 9 9 9 9 9 9 9 9 9 9 9 9 9 9 9 9 9 9 9 9 9 9 9 9 9 9 9 9 9 9 9 9 9 9 9 9 9 9 9 9 9 9 9 9 9 9 9 9 9 9 9 9 9 9 9 9 9 9 9 9 9 9 9 9 9 9 9 9 9 9 9 9 9 9 9 9 9 9 9 9 9 9 9 9 9 9 9 9 9 9 9 9 9 9 9 9 9 9 9 9 9 9 9 9 9 9 9 9 9 9 9 9 9 9 9 9 9 9 9 9 9 9 9 9 9 9 9 9 9 9 9 9 9 9 9 9 9 9 9 9 9 9 9 9 9 9 9 9 9 9 9 9 9 9 9 9 9 9 9 9 9 9 9 9 9 9 9 9 9 9 9 9 9 9 9 9 9 9 9 9 9 9 9 9 9 9 9 9 9 9 9 9 9 9 9 9 9 9 9 9 9 9 9 9 9 9 9 9 9 9 9 9 9 9 9 9 9 9 9 9 9 9 9 9 9 9 9 9 9 9 9 9 9 9 9 9 9 9 9 9 9 9 9 9 9 9 9 9 9 9 9 9 9 9 9 9 9 9 9 9 9 9 9 9 9 9 9 9 9 9 9 9 9 9 9 9 9 9 9 9 9 9 9 9 9 9 9 9 9 9 9 9 9 9 9 9 9 9 9 9 9 9 9 9 9 9 9 9 9 9 9 9 9 9 9 9 9 9 9 9 9 9 9 9 9 9 9 9 9 9 9 9 9 9 9 9 9 9 9 9 9 9 9 9 9 9 9 9 9 9 9 9 9 9 9 9 9 9 9 9 9 9 9 9 9 9 9 9 9 9 9 9 9 9 9 9 9 9 9 9 9 9 9 9 9 9 9 9 9 9 9 9 9 9 9 9 9 9 9 9 9 9 9 9 9 9 9 9 9 9 9 9 9 9 9 9 9 9 9 9 9 9 9 9 9 9 9 9 9 9 9 9 9 9 9 9 9 9 9 9 9 9 9 9 9 9 9 9 9 9 9 9 9 9 9 9 9 9 9 9 9 9 9 9 9 9 9 9 9 9 9 9 9 9 9 9 9 9 9 9 9 9 9 9 9 9 9 9 9 9 9 9 9 9 9 9 9 9 9 9 9 9 9 9 9 9 9 9 9 9 9 9 9 9 9 9 9 9 9 9 9 9 9 9 9 9 9 9 9 9 9 9 9 9 9 9 9 9 9 9 9 9 9 9 9 9 9 9 9 9 9 9 9 9 9 9 9 9 9 9 9 9 9 9 9 9 9 9 9 9 9 9 9 9 9 9 9 9 9 9 9 9 9 9 9 9 9 9 9 9 9 9 9 9 9 9 9 9 9 9 9 9 9 9 9 9 9 9 9 9 9 9 9 9 9 9 9 9 9 9 9 9 9 9 9 9 9 9 9 9 9 9 9 9 9 9 9 9 9 9 9 9 9 9 9 9 9 9 9 9 9 9 9 9 9 9 9 9 9 9 9 9 9 9 9 9 9 9 9 9 9 9 9 9 9 9 9 9 9 9 9 9 9 9 9 9 9 9 9 9 9 9 9 9 9 9 9 9 9 9 9 9 9 9 9 9 9 9 9 9 9 9 9 9 9 9 9 9 9 9 9 9 9 9 9 9 9 9 9 9 9 9 9 9 9 9 9 9 9 9 9 9 9 9 9 9 9 9 9 9 9 9 9 9 9 9 9 9 9 9 9 9 9 9 9 9 9 9 9 9 9 9 9 9 9 9 9 9 9 9 9 9 9 9 9 9 9 9 9 9 9 9 9 9 9 9 9 9 9 9 9 9 9 9 9 9 9 9 9 9 9 9 9 9 9 9 9 9 9 9 9 9 9 9 9 9 9 9 9 9 9 9 9 9 9 9 9 9 9 9 9 9 9 9 9 9 9 9 9 9 9 9 9 9 9 9 9 9 9 9 9 9 9 9 9 9 9 9 9 9 9 9 9 9 9 9 9 9 9 9 9 9 9 9 9 9 9 9 9 9 9 9 9 9 9 9 9 9 9 9 9 9 9 9 9 9 9 9 9 9 9 9 9 9 9 9 9 9 9 9 9 9 9 9 9 9 9 9 9 9 9 9 9 9 9 9 9 9 9 9 9 9 9 9 9 9 9 9 9 9 9 9 9 9 9 9 9 9 9 9 9 9 9 9 9 9 9 9 9 9 9 9 9 9 9 9 9 9 9 9 9 9 9 9 9 9 9 9 9 9 9 9 9 9 9 9 9 9 9 9 9 9 9 9 9 9 9 9 9 9 9 9 9 9 9 9 9 9 9 9 9 9 9 9 9 9 9 9 9 9 9 9 9 9 9 9 9 9 9 9 9 9 9 9 9 9 9 9 9 9 9 9 9 9 9 9 9 9 9 9 9 9 9 9 9 9 9 9 9 9 9 9 9 9 9 9 9 9 9 9 9 9 9 9 9 9 9 9 9 9 9 9 9 9 9 9 9 9 9 9 9 9 9 9 9 9 9 9 9 9 9 9 9 9 9 9 9 9 9 9 9 9 9 9 9 9 9 9 9 9 9 9 9 9 9 9 9 9 9 9 9 9 9 9 9 9 9 9 9 9 9 9 9 9 9 9 9 9 9 9 9 9 9 9 9 9 9 9 9 9 9 9 9 9 9 9 9 9 9 9 9 9 9 9 9 9 9 9 9 9 9 9 9 9 9 9 9 9 9 9 9 9 9 9 9 9 9 9 9 9 9 9 9 9 9 9 9 9 9 9 9 9 9 9 9 9 9 9 9 9 9 9 9 9 9 9 9 9 9 9 9 9 9 9 9 9 9 9 9 9 9 9 9 9 9 9 9 9 9 9 9 9 9 9 9 9 9 9 9 9 9 9 9 9 9 9 9 9 9 9 9 9 9 9 9 9 9 9 9 9 9 9 9 9 9 9 9 9 9 9 9 9 9 9 9 9 9 9 9 9 9 9 9 9 9 9 9 9 9 9 9 9 9 9 9 9 9 9 9 9 9 9 9 9 9 9 9 9 9 9 9 9 9 9 9 9 9 9 9 9 9 9 9 9 9 9 9 9 9 9 9 9 9 9 9 9 9 9 9 9 9 9 9 9 9 9 9 9 9 9 9 9 9 9 9 9 9 9 9 9 9 9 9 9 9 9 9 9 9 9 9 9 9 9 9 9 9 9 9 9 9 9 9 9 9 9 9 9 9 9 9 9 9 9 9 9 9 9 9 9 9 9 9 9 9 9 9 9 9 9 9 9 9 9 9 9 9 9 9 9 9 9 9 9 9 9 9 9 9 9 9 9 9 9 9 9 9 9 9 9 9 9 9 9 9 9 9 9 9 9 9 9 9 9 9 9 9 9 9 9 9 9 9 9 9 9 9 9 9 9 9 9 9 9 9 9 9 9 9 9 9 9 9 9 9 9 9 9 9 9 9 9 9 9 9 9 9 9 9 9 9 9 9 9 9 9 9 9 9 9 9 9 9 9 9 9 9 9 9 9 9 9 9 9 9 9 9 9 9 9 9 9 9 9 9 9 9 9 9 9 9 9 9 9 9 9 9 9 9 9 9 9 9 9 9 9 9 9 9 9 9 9 9 9 9 9 9 9 9 9 9 9 9 9 9 9 9 9 9 9 9 9 9 9 9 9 9 9 9 9 9 9 9 9 9 9 9 9 9 9 9 9 9 9 9 9 9 9 9 9 9 9 9 9 9 9 9 9 9 9 9 9 9 9 9 9 9 9 9 9 9 9 9 9 9 9 9 9 9 9 9 9 9 9 9 9 9 9 9 9 9 9 9 9 9 9 9 9 9 9 9 9 9 9 9 9 9 9 9 9 9 9 9 9 9 9 9 9 9 9 9 9 9 9 9 9 9 9 9 9 9 9 9 9 9 9 9 9 9 9 9 9 9 9 9 9 9 9 9 9 9 9 9 9 9 9 9 9 9 9 9 9 9 9 9 9 9 9 9 9 9 9 9 9 9 9 9 9 9 9 9 9 9 9 9 9 9 9 9 9 9 9 9 9 9 9 9 9 9 9 9 9 9 9 9 9 9 9 9 9 9 9 9 9 9 9 9 9 9 9 9 9 9 9 9 9 9 9 9 9 9 9 9 9 9 9 9 9 9 9 9 9 9 9 9 9 9 9 9 9 9 9 9 9 9 9 9 9 9 9 9 9 9 9 9 9 9 9 9 9 9 9 9 9 9 9 9 9 9 9 9 9 9 9 9 9 9 9 9 9 9 9 9 9 9 9 9 9 9 9 9 9 9 9 9 9 9 9 9 9 9 9 9 9 9 9 9 9 9 9 9 9 9 9 9 9 9 9 9 9 9 9 9 9 9 9 9 9 9 9 9 9 9 9 9 9 9 9 9 9 9 9 9 9 9 9 9 9 9 9 9 9 9 9 9 9 9 9 9 9 9 9 9 9 9 9 9 9 9 9 9 9 9 9 9 9 9 9 9 9 9 9 9 9 9 9 9 9 9 9 9 9 9 9 9 9 9 9 9 9 9 9 9 9 9 9 9 9 9 9 9 9 9 9 9 9 9 9 9 9 9 9 9 9 9 9 9 9 9 9 9 9 9 9 9 9 9 9 9 9 9 9 9 9 9 9 9 9 9 9 9 9 9 9 9 9 9 9 9 9 9 9 9 9 9 9 9 9 9 9 9 9 9 9 9 9 9 9 9 9 9 9 9 9 9 9 9 9 9 9 9 9 9 9 9 9 9 9 9 9 9 9 9 9 9 9 9 9 9 9 9 9 9 9 9 9 9 9 9 9 9 9 9 9 9 9 9 9 9 9 9 9 9 9 9 9 9 9 9 9 9 9 9 9 9 9 9 9 9 9 9 9 9 9 9 9 9 9 9 9 9 9 9 9 9 9 9 9 9 9 9 9 9 9 9 9 9 9 9 9 9 9 9 9 9 9 9 9 9 9 9 9 9 9 9 9 9 9 9 9 9 9 9 9 9 9 9 9 9 9 9 9 9 9 9 9 9 9 9 9 9 9 9 9 9 9 9 9 9 9 9 9 9 9 9 9 9 9 9 9 9 9 9 9 9 9 9 9 9 9 9 9 9 9 9 9 9 9 9 9 9 9 9 9 9 9 9 9 9 9 9 9 9 9 9 9 9 9 9 9 9 9 9 9 9 9 9 9 9 9 9 9 9 9 9 9 9 9 9 9 9 9 9 9 9 9 9 9 9 9 9 9 9 9 9 9 9 9 9 9 9 9 9 9 9 9 9 9 9 9 9 9 9 9 9 9 9 9 9 9 9 9 9 9 9 9 9 9 9 9 9 9 9 9 9 9 9 9 9 9 9 9 9 9 9 9 9 9 9 9 9 9 9 9 9 9 9 9 9 9 9 9 9 9 9 9 9 9 9 9 9 9 9 9 9 9 9 9 9 9 9 9 9 9 9 9 9 9 9 9 9 9 9 9 9 9 9 9 9 9 9 9 9 9 9 9 9 9 9 9 9 9 9 9 9 9 9 9 9 9 9 9 9 9 9 9 9 9 9 9 9 9 9 9 9 9 9 9 9 9 9 9 9 9 9 9 9 9 9 9 9 9 9 9 9 9 9 9 9 9 9 9 9 9 9 9 9 9 9 9 9 9 9 9 9 9 9 9 9 9 9 9 9 9 9 9 9 9 9 9 9 9 9 9 9 9 9 9 9 9 9 9 9 9 9 9 9 9 9 9 9 9 9 9 9 9 9 9 9 9 9 9 9 9 9 9 9 9 9 9 9 9 9 9 9 9 9 9 9 9 9 9 9 9 9 9 9 9 9 9 9 9 9 9 9 9 9 9 9 9 9 9 9 9 9 9 9 9 9 9 9 9 9 9 9 9 9 9 9 9 9 9 9 9 9 9 9 9 9 9 9 9 9 9 9 9 9 9 9 9 9 9 9 9 9 9 9 9 9 9 9 9 9 9 9 9 9 9 9 9 9 9 9 9 9 9 9 9 9 9 9 9 9 9 9 9 9 9 9 9 9 9 9 9 9 9 9 9 9 9 9 9 9 9 9 9 9 9 9 9 9 9 9 9 9 9 9 9 9 9 9 9 9 9 9 9 9 9 9 9 9 9 9 9 9 9 9 9 9 9 9 9 9 9 9 9 9 9 9 9 9 9 9 9 9 9 9 9 9 9 9 9 9 9 9 9 9 9 9 9 9 9 9 9 9 9 9 9 9 9 9 9 9 9 9 9 9 9 9 9 9 9 9 9 9 9 9 9 9 9 9 9 9 9 9 9 9 9 9 9 9 9 9 9 9 9 9 9 9 9 9 9 9 9 9 9 9 9 9 9 9 9 9 9 9 9 9 9 9 9 9 9 9 9 9 9 9 9 9 9 9 9 9 9 9 9 9 9 9 9 9 9 9 9 9 9 9 9 9 9 9 9 9 9 9 9 9 9 9 9 9 9 9 9 9 9 9 9 9 9 9 9 9 9 9 9 9 9 9 9 9 9 9 9 9 9 9 9 9 9 9 9 9 9 9 9 9 9 9 9 9 9 9 9 9 9 9 9 9 9 9 9 9 9 9 9 9 9 9 9 9 9 9 9 9 9 9 9 9 9 9 9 9 9 9 9 9 9 9 9 9 9 9 9 9 9 9 9 9 9 9 9 9 9 9 9 9 9 9 9 9 9 9 9 9 9 9 9 9 9 9 9 9 9 9 9 9 9 9 9 9 9 9 9 9 9 9 9 9 9 9 9 9 9 9 9 9 9 9 9 9 9 9 9 9 9 9 9 9 9 9 9 9 9 9 9 9 9 9 9 9 9 9 9 9 9 9 9 9 9 9 9 9 9 9 9 9 9 9 9 9 9 9 9 9 9 9 9 9 9 9 9 9 9 9 9 9 9 9 9 9 9 9 9 9 9 9 9 9 9 9 9 9 9 9 9 9 9 9 9 9 9 9 9 9 9 9 9 9 9 9 9 9 9 9 9 9 9 9 9 9 9 9 9 9 9 9 9 9 9 9 9 9 9 9 9 9 9 9 9 9 9 9 9 9 9 9 9 9 9 9 9 9 9 9 9 9 9 9 9 9 9 9 9 9 9 9 9 9 9 9 9 9 9 9 9 9 9 9 9 9 9 9 9 9 9 9 9 9 9 9 9 9 9 9 9 9 9 9 9 9 9 9 9 9 9 9 9 9 9 9 9 9 9 9 9 9 9 9 9 9 9 9 9 9 9 9 9 9 9 9 9 9 9 9 9 9 9 9 9 9 9 9 9 9 9 9 9 9 9 9 9 9 9 9 9 9 9 9 9 9 9 9 9 9 9 9 9 9 9 9 9 9 9 9 9 9 9 9 9 9 9 9 9 9 9 9 9 9 9 9 9 9 9 9 9 9 9 9 9 9 9 9 9 9 9 9 9 9 9 9 9 9 9 9 9 9 9 9 9 9 9 9 9 9 9 9 9 9 9 9 9 9 9 9 9 9 9 9 9 9 9 9 9 9 9 9 9 9 9 9 9 9 9 9 9 9 9 9 9 9 9 9 9 9 9 9 9 9 9 9 9 9 9 9 9 9 9 9 9 9 9 9 9 9 9 9 9 9 9 9 9 9 9 9 9 9 9 9 9 9 9 9 9 9 9 9 9 9 9 9 9 9 9 9 9 9 9 9 9 9 9 9 9 9 9 9 9 9 9 9 9 9 9 9 9 9 9 9 9 9 9 9 9 9 9 9 9 9 9 9 9 9 9 9 9 9 9 9 9 9 9 9 9 9 9 9 9 9 9 9 9 9 9 9 9 9 9 9 9 9 9 9 9 9 9 9 9 9 9 9 9 9 9 9 9 9 9 9 9 9 9 9 9 9 9 9 9 9 9 9 9 9 9 9 9 9 9 9 9 9 9 9 9 9 9 9 9 9 9 9 9 9 9 9 9 9 9 9 9 9 9 9 9 9 9 9 9 9 9 9 9 9 9 9 9 9 9 9 9 9 9 9 9 9 9 9 9 9 9 9 9 9 9 9 9 9 9 9 9 9 9 9 9 9 9 9 9 9 9 9 9 9 9 9 9 9 9 9 9 9 9 9 9 9 9 9 9 9 9 9 9 9 9 9 9 9 9 9 9 9 9 9 9 9 9 9 9 9 9 9 9 9 9 9 9 9 9 9 9 9 9 9 9 9 9 9 9 9 9 9 9 9 9 9 9 9 9 9 9 9 9 9 9 9 9 9 9 9 9 9 9 9 9 9 9 9 9 9 9 9 9 9 9 9 9 9 9 9 9 9 9 9 9 9 9 9 9 9 9 9 9 9 9 9 9 9 9 9 9 9 9 9 9 9 9 9 9 9 9 9 9 9 9 9 9 9 9 9 9 9 9 9 9 9 9 9 9 9 9 9 9 9 9 9 9 9 9 9 9 9 9 9 9 9 9 9 9 9 9 9 9 9 9 9 9 9 9 9 9 9 9 9 9 9 9 9 9 9 9 9 9 9 9 9 9 9 9 9 9 9 9 9 9 9 9 9 9 9 9 9 9 9 9 9 9 9 9 9 9 9 9 9 9 9 9 9 9 9 9 9 9 9 9 9 9 9 9 9 9 9 9 9 9 9 9 9 9 9 9 9 9 9 9 9 9 9 9 9 9 9 9 9 9 9 9 9 9 9 9 9 9 9 9 9 9 9 9 9 9 9 9 9 9 9 9 9 9 9 9 9 9 9 9 9 9 9 9 9 9 9 9 9 9 9 9 9 9 9 9 9 9 9 9 9 9 9 9 9 9 9 9 9 9 9 9 9 9 9 9 9 9 9 9 9 9 9 9 9 9 9 9 9 9 9 9 9 9 9 9 9 9 9 9 9 9 9 9 9 9 9 9 9 9 9 9 9 9 9 9 9 9 9 9 9 9 9 9 9 9 9 9 9 9 9 9 9 9 9 9 9 9 9 9 9 9 9 9 9 9 9 9 9 9 9 9 9 9 9 9 9 9 9 9 9 9 9 9 9 9 9 9 9 9 9 9 9 9 9 9 9 9 9 9 9 9 9 9 9 9 9 9 9 9 9 9 9 9 9 9 9 9 9 9 9 9 9 9 9 9 9 9 9 9 9 9 9 9 9 9 9 9 9 9 9 9 9 9 9 9 9 9 9 9 9 9 9 9 9 9 9 9 9 9 9 9 9 9 9 9 9 9 9 9 9 9 9 9 9 9 9 9 9 9 9 9 9 9 9 9 9 9 9 9 9 9 9 9 9 9 9 9 9 9 9 9 9 9 9 9 9 9 9 9 9 9 9 9 9 9 9 9 9 9 9 9 9 9 9 9 9 9 9 9 9 9 9 9 9 9 9 9 9 9 9 9 9 9 9 9 9 9 9 9 9 9 9 9 9 9 9 9 9 9 9 9 9 9 9 9 9 9 9 9 9 9 9 9 9 9 9 9 9 9 9 9 9 9 9 9 9 9 9 9 9 9 9 9 9 9 9 9 9 9 9 9 9 9 9 9 9 9 9 9 9 9 9 9 9 9 9 9 9 9 9 9 9 9 9 9 9 9 9 9 9 9 9 9 9 9 9 9 9 9 9 9 9 9 9 9 9 9 9 9 9 9 9 9 9 9 9 9 9 9 9 9 9 9 9 9 9 9 9 9 9 9 9 9 9 9 9 9 9 9 9 9 9 9 9 9 9 9 9 9 9 9 9 9 9 9 9 9 9 9 9 9 9 9 9 9 9 9 9 9 9 9 9 9 9 9 9 9 9 9 9 9 9 9 9 9 9 9 9 9 9 9 9 9 9 9 9 9 9 9 9 9 9 9 9 9 9 9 9 9 9 9 9 9 9 9 9 9 9 9 9 9 9 9 9 9 9 9 9 9 9 9 9 9 9 9 9 9 9 9 9 9 9 9 9 9 9 9 9 9 9 9 9 9 9 9 9 9 9 9 9 9 9 9 9 9 9 9 9 9 9 9 9 9 9 9 9 9 9 9 9 9 9 9 9 9 9 9 9 9 9 9 9 9 9 9 9 9 9 9 9 9 9 9 9 9 9 9 9 9 9 9 9 9 9 9 9 9 9 9 9 9 9 9 9 9 9 9 9 9 9 9 9 9 9 9 9 9 9 9 9 9 9 9 9 9 9 9 9 9 9 9 9 9 9 9 9 9 9 9 9 9 9 9 9 9 9 9 9 9 9 9 9 9 9 9 9 9 9 9 9 9 9 9 9 9 9 9 9 9 9 9 9 9 9 9 9 9 9 9 9 9 9 9 9 9 9 9 9 9 9 9 9 9 9 9 9 9 9 9 9 9 9 9 9 9 9 9 9 9 9 9 9 9 9 9 9 9 9 9 9 9 9 9 9 9 9 9 9 9 9 9 9 9 9 9 9 9 9 9 9 9 9 9 9 9 9 9 9 9 9 9 9 9 9 9 9 9 9 9 9 9 9 9 9 9 9 9 9 9 9 9 9 9 9 9 9 9 9 9 9 9 9 9 9 9 9 9 9 9 9 9 9 9 9 9 9 9 9 9 9 9 9 9 9 9 9 9 9 9 9 9 9 9 9 9 9 9 9 9 9 9 9 9 9 9 9 9 9 9 9 9 9 9 9 9 9 9 9 9 9 9 9 9 9 9 9 9 9 9 9 9 9 9 9 9 9 9 9 9 9 9 9 9 9 9 9 9 9 9 9 9 9 9 9 9 9 9 9 9 9 9 9 9 9 9 9 9 9 9 9 9 9 9 9 9 9 9 9 9 9 9 9 9 9 9 9 9 9 9 9 9 9 9 9 9 9 9 9 9 9 9 9 9 9 9 9 9 9 9 9 9 9 9 9 9 9 9 9 9 9 9 9 9 9 9 9 9 9 9 9 9 9 9 9 9 9 9 9 9 9 9 9 9 9 9 9 9 9 9 9 9 9 9 9 9 9 9 9 9 9 9 9 9 9 9 9 9 9 9 9 9 9 9 9 9 9 9 9 9 9 9 9 9 9 9 9 9 9 9 9 9 9 9 9 9 9 9 9 9 9 9 9 9 9 9 9 9 9 9 9 9 9 9 9 9 9 9 9 9 9 9 9 9 9 9 9 9 9 9 9 9 9 9 9 9 9 9 9 9 9 9 9 9 9 9 9 9 9 9 9 9 9 9 9 9 9 9 9 9 9 9 9 9 9 9 9 9 9 9 9 9 9 9 9 9 9 9 9 9 9 9 9 9 9 9 9 9 9 9 9 9 9 9 9 9 9 9 9 9 9 9 9 9 9 9 9 9 9 9 9 9 9 9 9 9 9 9 9 9 9 9 9 9 9 9 9 9 9 9 9 9 9 9 9 9 9 9 9 9 9 9 9 9 9 9 9 9 9 9 9 9 9 9 9 9 9 9 9 9 9 9 9 9 9 9 9 9 9 9 9 9 9 9 9 9 9 9 9 9 9 9 9 9 9 9 9 9 9 9 9 9 9 9 9 9 9 9 9 9 9 9 9 9 9 9 9 9 9 9 9 9 9 9 9 9 9 9 9 9 9 9 9 9 9 9 9 9 9 9 9 9 9 9 9 9 9 9 9 9 9 9 9 9 9 9 9 9 9 9 9 9 9 9 9 9 9 9 9 9 9 9 9 9 9 9 9 9 9 9 9 9 9 9 9 9 9 9 9 9 9 9 9 9 9 9 9 9 9 9 9 9 9 9 9 9 9 9 9 9 9 9 9 9 9 9 9 9 9 9 9 9 9 9 9 9 9 9 9 9 9 9 9 9 9 9 9 9 9 9 9 9 9 9 9 9 9 9 9 9 9 9 9 9 9 9 9 9 9 9 9 9 9 9 9 9 9 9 9 9 9 9 9 9 9 9 9 9 9 9 9 9 9 9 9 9 9 9 9 9 9 9 9 9 9 9 9 9 9 9 9 9 9 9 9 9 9 9 9 9 9 9 9 9 9 9 9 9 9 9 9 9 9 9 9 9 9 9 9 9 9 9 9 9 9 9 9 9 9 9 9 9 9 9 9 9 9 9 9 9 9 9 9 9 9 9 9 9 9 9 9 9 9 9 9 9 9 9 9 9 9 9 9 9 9 9 9 9 9 9 9 9 9 9 9 9 9 9 9 9 9 9 9 9 9 9 9 9 9 9 9 9 9 9 9 9 9 9 9 9 9 9 9 9 9 9 9 9 9 9 9 9 9 9 9 9 9 9 9 9 9 9 9 9 9 9 9 9 9 9 9 9 9 9 9 9 9 9 9 9 9 9 9 9 9 9 9 9 9 9 9 9 9 9 9 9 9 9 9 9 9 9 9 9 9 9 9 9 9 9 9 9 9 9 9 9 9 9 9 9 9 9 9 9 9 9 9 9 9 9 9 9 9 9 9 9 9 9 9 9 9 9 9 9 9 9 9 9 9 9 9 9 9 9 9 9 9 9 9 9 9 9 9 9 9 9 9 9 9 9 9 9 9 9 9 9 9 9 9 9 9 9 9 9 9 9 9 9 9 9 9 9 9 9 9 9 9 9 9 9 9 9 9 9 9 9 9 9 9 9 9 9 9 9 9 9 9 9 9 9 9 9 9 9 9 9 9 9 9 9 9 9 9 9 9 9 9 9 9 9 9 9 9 9 9 9 9 9 9 9 9 9 9 9 9 9 9 9 9 9 9 9 9 9 9 9 9 9 9 9 9 9 9 9 9 9 9 9 9 9 9 9 9 9 9 9 9 9 9 9 9 9 9 9 9 9 9 9 9 9 9 9 9 9 9 9 9 9 9 9 9 9 9 9 9 9 9 9 9 9 9 9 9 9 9 9 9 9 9 9 9 9 9 9 9 9 9 9 9 9 9 9 9 9 9 9 9 9 9 9 9 9 9 9 9 9 9 9 9 9 9 9 9 9 9 9 9 9 9 9 9 9 9 9 9 9 9 9 9 9 9 9 9 9 9 9 9 9 9 9 9 9 9 9 9 9 9 9 9 9 9 9 9 9 9 9 9 9 9 9 9 9 9 9 9 9 9 9 9 9 9 9 9 9 9 9 9 9 9 9 9 9 9 9 9 9 9 9 9 9 9 9 9 9 9 9 9 9 9 9 9 9 9 9 9 9 9 9 9 9 9 9 9 9 9 9 9 9 9 9 9 9 9 9 9 9 9 9 9 9 9 9 9 9 9 9 9 9 9 9 9 9 9 9 9 9 9 9 9 9 9 9 9 9 9 9 9 9 9 9 9 9 9 9 9 9 9 9 9 9 9 9 9 9 9 9 9 9 9 9 9 9 9 9 9 9 9 9 9 9 9 9 9 9 9 9 9 9 9 9 9 9 9 9 9 9 9 9 9 9 9 9 9 9 9 9 9 9 9 9 9 9 9 9 9 9 9 9 9 9 9 9 9 9 9 9 9 9 9 9 9 9 9 9 9 9 9 9 9 9 9 9 9 9 9 9 9 9 9 9 9 9 9 9 9 9 9 9 9 9 9 9 9 9 9 9 9 9 9 9 9 9 9 9 9 9 9 9 9 9 9 9 9 9 9 9 9 9 9 9 9 9 9 9 9 9 9 9 9 9 9 9 9 9 9 9 9 9 9 9 9 9 9 9 9 9 9 9 9 9 9 9 9 9 9 9 9 9 9 9 9 9 9 9 9 9 9 9 9 9 9 9 9 9 9 9 9 9 9 9 9 9 9 9 9 9 9 9 9 9 9 9 9 9 9 9 9 9 9 9 9 9 9 9 9 9 9 9 9 9 9 9 9 9 9 9 9 9 9 9 9 9 9 9 9 9 9 9 9 9 9 9 9 9 9 9 9 9 9 9 9 9 9 9 9 9 9 9 9 9 9 9 9 9 9 9 9 9 9 9 9 9 9 9 9 9 9 9 9 9 9 9 9 9 9 9 9 9 9 9 9 9 9 9 9 9 9 9 9 9 9 9 9 9 9 9 9 9 9 9 9 9 9 9 9 9 9 9 9 9 9 9 9 9 9 9 9 9 9 9 9 9 9 9 9 9 9 9 9 9 9 9 9 9 9 9 9 9 9 9 9 9 9 9 9 9 9 9 9 9 9 9 9 9 9 9 9 9 9 9 9 9 9 9 9 9 9 9 9 9 9 9 9 9 9 9 9 9 9 9 9 9 9 9 9 9 9 9 9 9 9 9 9 9 9 9 9 9 9 9 9 9 9 9 9 9 9 9 9 9 9 9 9 9 9 9 9 9 9 9 9 9 9 9 9 9 9 9 9 9 9 9 9 9 9 9 9 9 9 9 9 9 9 9 9 9 9 9 9 9 9 9 9 9 9 9 9 9 9 9 9 9 9 9 9 9 9 9 9 9 9 9 9 9 9 9 9 9 9 9 9 9 9 9 9 9 9 9 9 9 9 9 9 9 9 9 9 9 9 9 9 9 9 9 9 9 9 9 9 9 9 9 9 9 9 9 9 9 9 9 9 9 9 9 9 9 9 9 9 9 9 9 9 9 9 9 9 9 9 9 9 9 9 9 9 9 9 9 9 9 9 9 9 9 9 9 9 9 9 9 9 9 9 9 9 9 9 9 9 9 9 9 9 9 9 9 9 9 9 9 9 9 9 9 9 9 9 9 9 9 9 9 9 9 9 9 9 9 9 9 9 9 9 9 9 9 9 9 9 9 9 9 9 9 9 9 9 9 9 9 9 9 9 9 9 9 9 9 9 9 9 9 9 9 9 9 9 9 9 9 9 9 9 9 9 9 9 9 9 9 9 9 9 9 9 9 9 9 9 9 9 9 9 9 9 9 9 9 9 9 9 9 9 9 9 9 9 9 9 9 9 9 9 9 9 9 9 9 9 9 9 9 9 9 9 9 9 9 9 9 9 9 9 9 9 9 9 9 9 9 9 9 9 9 9 9 9 9 9 9 9 9 9 9 9 9 9 9 9 9 9 9 9 9 9 9 9 9 9 9 9 9 9 9 9 9 9 9 9 9 9 9 9 9 9 9 9 9 9 9 9 9 9 9 9 9 9 9 9 9 9 9 9 9 9 9 9 9 9 9 9 9 9 9 9 9 9 9 9 9 9 9 9 9 9 9 9 9 9 9 9 9 9 9 9 9 9 9 9 9 9 9 9 9 9 9 9 9 9 9 9 9 9 9 9 9 9 9 9 9 9 9 9 9 9 9 9 9 9 9 9 9 9 9 9 9 9 9 9 9 9 9 9 9 9 9 9 9 9 9 9 9 9 9 9 9 9 9 9 9 9 9 9 9 9 9 9 9 9 9 9 9 9 9 9 9 9 9 9 9 9 9 9 9 9 9 9 9 9 9 9 9 9 9 9 9 9 9 9 9 9 9 9 9 9 9 9 9 9 9 9 9 9 9 9 9 9 9 9 9 9 9 9 9 9 9 9 9 9 9 9 9 9 9 9 9 9 9 9 9 9 9 9 9 9 9 9 9 9 9 9 9 9 9 9 9 9 9 9 9 9 9 9 9 9 9 9 9 9 9 9 9 9 9 9 9 9 9 9 9 9 9 9 9 9 9 9 9 9 9 9 9 9 9 9 9 9 9 9 9 9 9 9 9 9 9 9 9 9 9 9 9 9 9 9 9 9 9 9 9 9 9 9 9 9 9 9 9 9 9 9 9 9 9 9 9 9 9 9 9 9 9 9 9 9 9 9 9 9 9 9 9 9 9 9 9 9 9 9 9 9 9 9 9 9 9 9 9 9 9 9 9 9 9 9 9 9 9 9 9 9 9 9 9 9 9 9 9 9 9 9 9 9 9 9 9 9 9 9 9 9 9 9 9 9 9 9 9 9 9 9 9 9 9 9 9 9 9 9 9 9 9 9 9 9 9 9 9 9 9 9 9 9 9 9 9 9 9 9 9 9 9 9 9 9 9 9 9 9 9 9 9 9 9 9 9 9 9 9 9 9 9 9 9 9 9 9 9 9 9 9 9 9 9 9 9 9 9 9 9 9 9 9 9 9 9 9 9 9 9 9 9 9 9 9 9 9 9 9 9 9 9 9 9 9 9 9 9 9 9 9 9 9 9 9 9 9 9 9 9 9 9 9 9 9 9 9 9 9 9 9 9 9 9 9 9 9 9 9 9 9 9 9 9 9 9 9 9 9 9 9 9 9 9 9 9 9 9 9 9 9 9 9 9 9 9 9 9 9 9 9 9 9 9 9 9 9 9 9 9 9 9 9 9 9 9 9 9 9 9 9 9 9 9 9 9 9 9 9 9 9 9 9 9 9 9 9 9 9 9 9 9 9 9 9 9 9 9 9 9 9 9 9 9 9 9 9 9 9 9 9 9 9 9 9 9 9 9 9 9 9 9 9 9 9 9 9 9 9 9 9 9 9 9 9 9 9 9 9 9 9 9 9 9 9 9 9 9 9 9 9 9 9 9 9 9 9 9 9 9 9 9 9 9 9 9 9 9 9 9 9 9 9 9 9 9 9 9 9 9 9 9 9 9 9 9 9 9 9 9 9 9 9 9 9 9 9 9 9 9 9 9 9 9 9 9 9 9 9 9 9 9 9 9 9 9 9 9 9 9 9 9 9 9 9 9 9 9 9 9 9 9 9 9 9 9 9 9 9 9 9 9 9 9 9 9 9 9 9 9 9 9 9 9 9 9 9 9 9 9 9 9 9 9 9 9 9 9 9 9 9 9 9 9 9 9 9 9 9 9 9 9 9 9 9 9 9 9 9 9 9 9 9 9 9 9 9 9 9 9 9 9 9 9 9 9 9 9 9 9 9 9 9 9 9 9 9 9 9 9 9 9 9 9 9 9 9 9 9 9 9 9 9 9 9 9 9 9 9 9 9 9 9 9 9 9 9 9 9 9 9 9 9 9 9 9 9 9 9 9 9 9 9 9 9 9 9 9 9 9 9 9 9 9 9 9 9 9 9 9 9 9 9 9 9 9 9 9 9 9 9 9 9 9 9 9 9 9 9 9 9 9 9 9 9 9 9 9 9 9 9 9 9 9 9 9 9 9 9 9 9 9 9 9 9 9 9 9 9 9 9 9 9 9 9 9 9 9 9 9 9 9 9 9 9 9 9 9 9 9 9 9 9 9 9 9 9 9 9 9 9 9 9 9 9 9 9 9 9 9 9 9 9 9 9 9 9 9 9 9 9 9 9 9 9 9 9 9 9 9 9 9 9 9 9 9 9 9 9 9 9 9 9 9 9 9 9 9 9 9 9 9 9 9 9 9 9 9 9 9 9 9 9 9 9 9 9 9 9 9 9 9 9 9 9 9 9 9 9 9 9 9 9 9 9 9 9 9 9 9 9 9 9 9 9 9 9 9 9 9 9 9 9 9 9 9 9 9 9 9 9 9 9 9 9 9 9 9 9 9 9 9 9 9 9 9 9 9 9 9 9 9 9 9 9 9 9 9 9 9 9 9 9 9 9 9 9 9 9 9 9 9 9 9 9 9 9 9 9 9 9 9 9 9 9 9 9 9 9 9 9 9 9 9 9 9 9 9 9 9 9 9 9 9 9 9 9 9 9 9 9 9 9 9 9 9 9 9 9 9 9 9 9 9 9 9 9 9 9 9 9 9 9 9 9 9 9 9 9 9 9 9 9 9 9 9 9 9 9 9 9 9 9 9 9 9 9 9 9 9 9 9 9 9 9 9 9 9 9 9 9 9 9 9 9 9 9 9 9 9 9 9 9 9 9 9 9 9 9 9 9 9 9 9 9 9 9 9 9 9 9 9 9 9 9 9 9 9 9 9 9 9 9 9 9 9 9 9 9 9 9 9 9 9 9 9 9 9 9 9 9 9 9 9 9 9 9 9 9 9 9 9 9 9 9 9 9 9 9 9 9 9 9 9 9 9 9 9 9 9 9 9 9 9 9 9 9 9 9 9 9 9 9 9 9 9 9 9 9 9 9 9 9 9 9 9 9 9 9 9 9 9 9 9 9 9 9 9 9 9 9 9 9 9 9 9 9 9 9 9 9 9 9 9 9 9 9 9 9 9 9 9 9 9 9 9 9 9 9 9 9 9 9 9 9 9 9 9 9 9 9 9 9 9 9 9 9 9 9 9 9 9 9 9 9 9 9 9 9 9 9 9 9 9 9 9 9 9 9 9 9 9 9 9 9 9 9 9 9 9 9 9 9 9 9 9 9 9 9 9 9 9 9 9 9 9 9 9 9 9 9 9 9 9 9 9 9 9 9 9 9 9 9 9 9 9 9 9 9 9 9 9 9 9 9 9 9 9 9 9 9 9 9 9 9 9 9 9 9 9 9 9 9 9 9 9 9 9 9 9 9 9 9 9 9 9 9 9 9 9 9 9 9 9 9 9 9 9 9 9 9 9 9 9 9 9 9 9 9 9 9 9 9 9 9 9 9 9 9 9 9 9 9 9 9 9 9 9 9 9 9 9 9 9 9 9 9 9 9 9 9 9 9 9 9 9 9 9 9 9 9 9 9 9 9 9 9 9 9 9 9 9 9 9 9 9 9 9 9 9 9 9 9 9 9 9 9 9 9 9 9 9 9 9 9 9 9 9 9 9 9 9 9 9 9 9 9 9 9 9 9 9 9 9 9 9 9 9 9 9 9 9 9 9 9 9 9 9 9 9 9 9 9 9 9 9 9 9 9 9 9 9 9 9 9 9 9 9 9 9 9 9 9 9 9 9 9 9 9 9 9 9 9 9 9 9 9 9 9 9 9 9 9 9 9 9 9 9 9 9 9 9 9 9 9 9 9 9 9 9 9 9 9 9 9 9 9 9 9 9 9 9 9 9 9 9 9 9 9 9 9 9 9 9 9 9 9 9 9 9 9 9 9 9 9 9 9 9 9 9 9 9 9 9 9 9 9 9 9 9 9 9 9 9 9 9 9 9 9 9 9 9 9 9 9 9 9 9 9 9 9 9 9 9 9 9 9 9 9 9 9 9 9 9 9 9 9 9 9 9 9 9 9 9 9 9 9 9 9 9 9 9 9 9 9 9 9 9 9 9 9 9 9 9 9 9 9 9 9 9 9 9 9 9 9 9 9 9 9 9 9 9 9 9 9 9 9 9 9 9 9 9 9 9 9 9 9 9 9 9 9 9 9 9 9 9 9 9 9 9 9 9 9 9 9 9 9 9 9 9 9 9 9 9 9 9 9 9 9 9 9 9 9 9 9 9 9 9 9 9 9 9 9 9 9 9 9 9 9 9 9 9 9 9 9 9 9 9 9 9 9 9 9 9 9 9 9 9 9 9 9 9 9 9 9 9 9 9 9 9 9 9 9 9 9 9 9 9 9 9 9 9 9 9 9 9 9 9 9 9 9 9 9 9 9 9 9 9 9 9 9 9 9 9 9 9 9 9 9 9 9 9 9 9 9 9 9 9 9 9 9 9 9 9 9 9 9 9 9 9 9 9 9 9 9 9 9 9 9 9 9 9 9 9 9 9 9 9 9 9 9 9 9 9 9 9 9 9 9 9 9 9 9 9 9 9 9 9 9 9 9 9 9 9 9 9 9 9 9 9 9 9 9 9 9 9 9 9 9 9 9 9 9 9 9 9 9 9 9 9 9 9 9 9 9 9 9 9 9 9 9 9 9 9 9 9 9 9 9 9 9 9 9 9 9 9 9 9 9 9 9 9 9 9 9 9 9 9 9 9 9 9 9 9 9 9 9 9 9 9 9 9 9 9 9 9 9 9 9 9 9 9 9 9 9 9 9 9 9 9 9 9 9 9 9 9 9 9 9 9 9 9 9 9 9 9 9 9 9 9 9 9 9 9 9 9 9 9 9 9 9 9 9 9 9 9 9 9 9 9 9 9 9 9 9 9 9 9 9 9 9 9 9 9 9 9 9 9 9 9 9 9 9 9 9 9 9 9 9 9 9 9 9 9 9 9 9 9 9 9 9 9 9 9 9 9 9 9 9 9 9 9 9 9 9 9 9 9 9 9 9 9 9 9 9 9 9 9 9 9 9 9 9 9 9 9 9 9 9 9 9 9 9 9 9 9 9 9 9 9 9 9 9 9 9 9 9 9 9 9 9 9 9 9 9 9 9 9 9 9 9 9 9 9 9 9 9 9 9 9 9 9 9 9 9 9 9 9 9 9 9 9 9 9 9 9 9 9 9 9 9 9 9 9 9 9 9 9 9 9 9 9 9 9 9 9 9 9 9 9 9 9 9 9 9 9 9 9 9 9 9 9 9 9 9 9 9 9 9 9 9 9 9 9 9 9 9 9 9 9 9 9 9 9 9 9 9 9 9 9 9 9 9 9 9 9 9 9 9 9 9 9 9 9 9 9 9 9 9 9 9 9 9 9 9 9 9 9 9 9 9 9 9 9 9 9 9 9 9 9 9 9 9 9 9 9 9 9 9 9 9 9 9 9 9 9 9 9 9 9 9 9 9 9 9 9 9 9 9 9 9 9 9 9 9 9 9 9 9 9 9 9 9 9 9 9 9 9 9 9 9 9 9 9 9 9 9 9 9 9 9 9 9 9 9 9 9 9 9 9 9 9 9 9 9 9 9 9 9 9 9 9 9 9 9 9 9 9 9 9 9 9 9 9 9 9 9 9 9 9 9 9 9 9 9 9 9 9 9 9 9 9 9 9 9 9 9 9 9 9 9 9 9 9 9 9 9 9 9 9 9 9 9 9 9 9 9 9 9 9 9 9 9 9 9 9 9 9 9 9 9 9 9 9 9 9 9 9 9 9 9 9 9 9 9 9 9 9 9 9 9 9 9 9 9 9 9 9 9 9 9 9 9 9 9 9 9 9 9 9 9 9 9 9 9 9 9 9 9 9 9 9 9 9 9 9 9 9 9 9 9 9 9 9 9 9 9 9 9 9 9 9 9 9 9 9 9 9 9 9 9 9 9 9 9 9 9 9 9 9 9 9 9 9 9 9 9 9 9 9 9 9 9 9 9 9 9 9 9 9 9 9 9 9 9 9 9 9 9 9 9 9 9 9 9 9 9 9 9 9 9 9 9 9 9 9 9 9 9 9 9 9 9 9 9 9 9 9 9 9 9 9 9 9 9 9 9 9 9 9 9 9 9 9 9 9 9 9 9 9 9 9 9 9 9 9 9 9 9 9 9 9 9 9 9 9 9 9 9 9 9 9 9 9 9 9 9 9 9 9 9 9 9 9 9 9 9 9 9 9 9 9 9 9 9 9 9 9 9 9 9 9 9 9 9 9 9 9 9 9 9 9 9 9 9 9 9 9 9 9 9 9 9 9 9 9 9 9 9 9 9 9 9 9 9 9 9 9 9 9 9 9 9 9 9 9 9 9 9 9 9 9 9 9 9 9 9 9 9 9 9 9 9 9 9 9 9 9 9 9 9 9 9 9 9 9 9 9 9 9 9 9 9 9 9 9 9 9 9 9 9 9 9 9 9 9 9 9 9 9 9 9 9 9 9 9 9 9 9 9 9 9 9 9 9 9 9 9 9 9 9 9 9 9 9 9 9 9 9 9 9 9 9 9 9 9 9 9 9 9 9 9 9 9 9 9 9 9 9 9 9 9 9 9 9 9 9 9 9 9 9 9 9 9 9 9 9 9 9 9 9 9 9 9 9 9 9 9 9 9 9 9 9 9 9 9 9 9 9 9 9 9 9 9 9 9 9 9 9 9 9 9 9 9 9 9 9 9 9 9 9 9 9 9 9 9 9 9 9 9 9 9 9 9 9 9 9 9 9 9 9 9 9 9 9 9 9 9 9 9 9 9 9 9 9 9 9 9 9 9 9 9 9 9 9 9 9 9 9 9 9 9 9 9 9 9 9 9 9 9 9 9 9 9 9 9 9 9 9 9 9 9 9 9 9 9 9 9 9 9 9 9 9 9 9 9 9 9 9 9 9 9 9 9 9 9 9 9 9 9 9 9 9 9 9 9 9 9 9 9 9 9 9 9 9 9 9 9 9 9 9 9 9 9 9 9 9 9 9 9 9 9 9 9 9 9 9 9 9 9 9 9 9 9 9 9 9 9 9 9 9 9 9 9 9 9 9 9 9 9 9 9 9 9 9 9 9 9 9 9 9 9 9 9 9 9 9 9 9 9 9 9 9 9 9 9 9 9 9 9 9 9 9 9 9 9 9 9 9 9 9 9 9 9 9 9 9 9 9 9 9 9 9 9 9 9 9 9 9 9 9 9 9 9 9 9 9 9 9 9 9 9 9 9 9 9 9 9 9 9 9 9 9 9 9 9 9 9 9 9 9 9 9 9 9 9 9 9 9 9 9 9 9 9 9 9 9 9 9 9 9 9 9 9 9 9 9 9 9 9 9 9 9 9 9 9 9 9 9 9 9 9 9 9 9 9 9 9 9 9 9 9 9 9 9 9 9 9 9 9 9 9 9 9 9 9 9 9 9 9 9 9 9 9 9 9 9 9 9 9 9 9 9 9 9 9 9 9 9 9 9 9 9 9 9 9 9 9 9 9 9 9 9 9 9 9 9 9 9 9 9 9 9 9 9 9 9 9 9 9 9 9 9 9 9 9 9 9 9 9 9 9 9 9 9 9 9 9 9 9 9 9 9 9 9 9 9 9 9 9 9 9 9 9 9 9 9 9 9 9 9 9 9 9 9 9 9 9 9 9 9 9 9 9 9 9 9 9 9 9 9 9 9 9 9 9 9 9 9 9 9 9 9 9 9 9 9 9 9 9 9 9 9 9 9 9 9 9 9 9 9 9 9 9 9 9 9 9 9 9 9 9 9 9 9 9 9 9 9 9 9 9 9 9 9 9 9 9 9 9 9 9 9 9 9 9 9 9 9 9 9 9 9 9 9 9 9 9 9 9 9 9 9 9 9 9 9 9 9 9 9 9 9 9 9 9 9 9 9 9 9 9 9 9 9 9 9 9 9 9 9 9 9 9 9 9 9 9 9 9 9 9 9 9 9 9 9 9 9 9 9 9 9 9 9 9 9 9 9 9 9 9 9 9 9 9 9 9 9 9 9 9 9 9 9 9 9 9 9 9 9 9 9 9 9 9 9 9 9 9 9 9 9 9 9 9 9 9 9 9 9 9 9 9 9 9 9 9 9 9 9 9 9 9 9 9 9 9 9 9 9 9 9 9 9 9 9 9 9 9 9 9 9 9 9 9 9 9 9 9 9 9 9 9 9 9 9 9 9 9 9 9 9 9 9 9 9 9 9 9 9 9 9 9 9 9 9 9 9 9 9 9 9 9 9 9 9 9 9 9 9 9 9 9 9 9 9 9 9 9 9 9 9 9 9 9 9 9 9 9 9 9 9 9 9 9 9 9 9 9 9 9 9 9 9 9 9 9 9 9 9 9 9 9 9 9 9 9 9 9 9 9 9 9 9 9 9 9 9 9 9 9 9 9 9 9 9 9 9 9 9 9 9 9 9 9 9 9 9 9 9 9 9 9 9 9 9 9 9 9 9 9 9 9 9 9 9 9 9 9 9 9 9 9 9 9 9 9 9 9 9 9 9 9 9 9 9 9 9 9 9 9 9 9 9 9 9 9 9 9 9 9 9 9 9 9 9 9 9 9 9 9 9 9 9 9 9 9 9 9 9 9 9 9 9 9 9 9 9 9 9 9 9 9 9 9 9 9 9 9 9 9 9 9 9 9 9 9 9 9 9 9 9 9 9 9 9 9 9 9 9 9 9 9 9 9 9 9 9 9 9 9 9 9 9 9 9 9 9 9 9 9 9 9 9 9 9 9 9 9 9 9 9 9 9 9 9 9 9 9 9 9 9 9 9 9 9 9 9 9 9 9 9 9 9 9 9 9 9 9 9 9 9 9 9 9 9 9 9 9 9 9 9 9 9 9 9 9 9 9 9 9 9 9 9 9 9 9 9 9 9 9 9 9 9 9 9 9 9 9 9 9 9 9 9 9 9 9 9 9 9 9 9 9 9 9 9 9 9 9 9 9 9 9 9 9 9 9 9 9 9 9 9 9 9 9 9 9 9 9 9 9 9 9 9 9 9 9 9 9 9 9 9 9 9 9 9 9 9 9 9 9 9 9 9 9 9 9 9 9 9 9 9 9 9 9 9 9 9 9 9 9 9 9 9 9 9 9 9 9 9 9 9 9 9 9 9 9 9 9 9 9 9 9 9 9 9 9 9 9 9 9 9 9 9 9 9 9 9 9 9 9 9 9 9 9 9 9 9 9 9 9 9 9 9 9 9 9 9 9 9 9 9 9 9 9 9 9 9 9 9 9 9 9 9 9 9 9 9 9 9 9 9 9 9 9 9 9 9 9 9 9 9 9 9 9 9 9 9 9 9 9 9 9 9 9 9 9 9 9 9 9 9 9 9 9 9 9 9 9 9 9 9 9 9 9 9 9 9 9 9 9 9 9 9 9 9 9 9 9 9 9 9 9 9 9 9 9 9 9 9 9 9 9 9 9 9 9 9 9 9 9 9 9 9 9 9 9 9 9 9 9 9 9 9 9 9 9 9 9 9 9 9 9 9 9 9 9 9 9 9 9 9 9 9 9 9 9 9 9 9 9 9 9 9 9 9 9 9 9 9 9 9 9 9 9 9 9 9 9 9 9 9 9 9 9 9 9 9 9 9 9 9 9 9 9 9 9 9 9 9 9 9 9 9 9 9 9 9 9 9 9 9 9 9 9 9 9 9 9 9 9 9 9 9 9 9 9 9 9 9 9 9 9 9 9 9 9 9 9 9 9 9 9 9 9 9 9 9 9 9 9 9 9 9 9 9 9 9 9 9 9 9 9 9 9 9 9 9 9 9 9 9 9 9 9 9 9 9 9 9 9 9 9 9 9 9 9 9 9 9 9 9 9 9 9 9 9 9 9 9 9 9 9 9 9 9 9 9 9 9 9 9 9 9 9 9 9 9 9 9 9 9 9 9 9 9 9 9 9 9 9 9 9 9 9 9 9 9 9 9 9 9 9 9 9 9 9 9 9 9 9 9 9 9 9 9 9 9 9 9 9 9 9 9 9 9 9 9 9 9 9 9 9 9 9 9 9 9 9 9 9 9 9 9 9 9 9 9 9 9 9 9 9 9 9 9 9 9 9 9 9 9 9 9 9 9 9 9 9 9 9 9 9 9 9 9 9 9 9 9 9 9 9 9 9 9 9 9 9 9 9 9 9 9 9 9 9 9 9 9 9 9 9 9 9 9 9 9 9 9 9 9 9 9 9 9 9 9 9 9 9 9 9 9 9 9 9 9 9 9 9 9 9 9 9 9 9 9 9 9 9 9 9 9 9 9 9 9 9 9 9 9 9 9 9 9 9 9 9 9 9 9 9 9 9 9 9 9 9 9 9 9 9 9 9 9 9 9 9 9 9 9 9 9 9 9 9 9 9 9 9 9 9 9 9 9 9 9 9 9 9 9 9 9 9 9 9 9 9 9 9 9 9 9 9 9 9 9 9 9 9 9 9 9 9 9 9 9 9 9 9 9 9 9 9 9 9 9 9 9 9 9 9 9 9 9 9 9 9 9 9 9 9 9 9 9 9 9 9 9 9 9 9 9 9 9 9 9 9 9 9 9 9 9 9 9 9 9 9 9 9 9 9 9 9 9 9 9 9 9 9 9 9 9 9 9 9 9 9 9 9 9 9 9 9 9 9 9 9 9 9 9 9 9 9 9 9 9 9 9 9 9 9 9 9 9 9 9 9 9 9 9 9 9 9 9 9 9 9 9 9 9 9 9 9 9 9 9 9 9 9 9 9 9 9 9 9 9 9 9 9 9 9 9 9 9 9 9 9 9 9 9 9 9 9 9 9 9 9 9 9 9 9 9 9 9 9 9 9 9 9 9 9 9 9 9 9 9 9 9 9 9 9 9 9 9 9 9 9 9 9 9 9 9 9 9 9 9 9 9 9 9 9 9 9 9 9 9 9 9 9 9 9 9 9 9 9 9 9 9 9 9 9 9 9 9 9 9 9 9 9 9 9 9 9 9 9 9 9 9 9 9 9 9 9 9 9 9 9 9 9 9 9 9 9 9 9 9 9 9 9 9 9 9 9 9 9 9 9 9 9 9 9 9 9 9 9 9 9 9 9 9 9 9 9 9 9 9 9 9 9 9 9 9 9 9 9 9 9 9 9 9 9 9 9 9 9 9 9 9 9 9 9 9 9 9 9 9 9 9 9 9 9 9 9 9 9 9 9 9 9 9 9 9 9 9 9 9 9 9 9 9 9 9 9 9 9 9 9 9 9 9 9 9 9 9 9 9 9 9 9 9 9 9 9 9 9 9 9 9 9 9 9 9 9 9 9 9 9 9 9 9 9 9 9 9 9 9 9 9 9 9 9 9 9 9 9 9 9 9 9 9 9 9 9 9 9 9 9 9 9 9 9 9 9 9 9 9 9 9 9 9 9 9 9 9 9 9 9 9 9 9 9 9 9 9 9 9
</DataArray>

      </Cells>
      <Points><DataArray NumberOfComponents="3" type="Float32" format="ascii" >
 0.3 1 0 0.2 1 0 -0.2 1 0 -0.3 1 0 0.3 10 0 0.2 10 0 -0.2 10 0 -0.3 10 0 0.2 0 0 -0.2 0 0 1 10 0 -1 10 0 -1 1 0 1 1 0 1 0 0 0.3 0 0 -0.3 0 0 -1 0 0 -1 9.93333 0 -1 9.86667 0 -1 9.8 0 -1 9.73333 0 -1 9.66667 0 -1 9.6 0 -1 9.53333 0 -1 9.46667 0 -1 9.4 0 -1 9.33333 0 -1 9.26667 0 -1 9.2 0 -1 9.13333 0 -1 9.06667 0 -1 9 0 -1 8.93333 0 -1 8.86667 0 -1 8.8 0 -1 8.73333 0 -1 8.66667 0 -1 8.6 0 -1 8.53333 0 -1 8.46667 0 -1 8.4 0 -1 8.33333 0 -1 8.26667 0 -1 8.2 0 -1 8.13333 0 -1 8.06667 0 -1 8 0 -1 7.93333 0 -1 7.86667 0 -1 7.8 0 -1 7.73333 0 -1 7.66667 0 -1 7.6 0 -1 7.53333 0 -1 7.46667 0 -1 7.4 0 -1 7.33333 0 -1 7.26667 0 -1 7.2 0 -1 7.13333 0 -1 7.06667 0 -1 7 0 -1 6.93333 0 -1 6.86667 0 -1 6.8 0 -1 6.73333 0 -1 6.66667 0 -1 6.6 0 -1 6.53333 0 -1 6.46667 0 -1 6.4 0 -1 6.33333 0 -1 6.26667 0 -1 6.2 0 -1 6.13333 0 -1 6.06667 0 -1 6 0 -1 5.93333 0 -1 5.86667 0 -1 5.8 0 -1 5.73333 0 -1 5.66667 0 -1 5.6 0 -1 5.53333 0 -1 5.46667 0 -1 5.4 0 -1 5.33333 0 -1 5.26667 0 -1 5.2 0 -1 5.13333 0 -1 5.06667 0 -1 5 0 -1 4.93333 0 -1 4.86667 0 -1 4.8 0 -1 4.73333 0 -1 4.66667 0 -1 4.6 0 -1 4.53333 0 -1 4.46667 0 -1 4.4 0 -1 4.33333 0 -1 4.26667 0 -1 4.2 0 -1 4.13333 0 -1 4.06667 0 -1 4 0 -1 3.93333 0 -1 3.86667 0 -1 3.8 0 -1 3.73333 0 -1 3.66667 0 -1 3.6 0 -1 3.53333 0 -1 3.46667 0 -1 3.4 0 -1 3.33333 0 -1 3.26667 0 -1 3.2 0 -1 3.13333 0 -1 3.06667 0 -1 3 0 -1 2.93333 0 -1 2.86667 0 -1 2.8 0 -1 2.73333 0 -1 2.66667 0 -1 2.6 0 -1 2.53333 0 -1 2.46667 0 -1 2.4 0 -1 2.33333 0 -1 2.26667 0 -1 2.2 0 -1 2.13333 0 -1 2.06667 0 -1 2 0 -1 1.93333 0 -1 1.86667 0 -1 1.8 0 -1 1.73333 0 -1 1.66667 0 -1 1.6 0 -1 1.53333 0 -1 1.46667 0 -1 1.4 0 -1 1.33333 0 -1 1.26667 0 -1 1.2 0 -1 1.13333 0 -1 1.06667 0 1 1.06667 0 1 1.13333 0 1 1.2 0 1 1.26667 0 1 1.33333 0 1 1.4 0 1 1.46667 0 1 1.53333 0 1 1.6 0 1 1.66667 0 1 1.73333 0 1 1.8 0 1 1.86667 0 1 1.93333 0 1 2 0 1 2.06667 0 1 2.13333 0 1 2.2 0 1 2.26667 0 1 2.33333 0 1 2.4 0 1 2.46667 0 1 2.53333 0 1 2.6 0 1 2.66667 0 1 2.73333 0 1 2.8 0 1 2.86667 0 1 2.93333 0 1 3 0 1 3.06667 0 1 3.13333 0 1 3.2 0 1 3.26667 0 1 3.33333 0 1 3.4 0 1 3.46667 0 1 3.53333 0 1 3.6 0 1 3.66667 0 1 3.73333 0 1 3.8 0 1 3.86667 0 1 3.93333 0 1 4 0 1 4.06667 0 1 4.13333 0 1 4.2 0 1 4.26667 0 1 4.33333 0 1 4.4 0 1 4.46667 0 1 4.53333 0 1 4.6 0 1 4.66667 0 1 4.73333 0 1 4.8 0 1 4.86667 0 1 4.93333 0 1 5 0 1 5.06667 0 1 5.13333 0 1 5.2 0 1 5.26667 0 1 5.33333 0 1 5.4 0 1 5.46667 0 1 5.53333 0 1 5.6 0 1 5.66667 0 1 5.73333 0 1 5.8 0 1 5.86667 0 1 5.93333 0 1 6 0 1 6.06667 0 1 6.13333 0 1 6.2 0 1 6.26667 0 1 6.33333 0 1 6.4 0 1 6.46667 0 1 6.53333 0 1 6.6 0 1 6.66667 0 1 6.73333 0 1 6.8 0 1 6.86667 0 1 6.93333 0 1 7 0 1 7.06667 0 1 7.13333 0 1 7.2 0 1 7.26667 0 1 7.33333 0 1 7.4 0 1 7.46667 0 1 7.53333 0 1 7.6 0 1 7.66667 0 1 7.73333 0 1 7.8 0 1 7.86667 0 1 7.93333 0 1 8 0 1 8.06667 0 1 8.13333 0 1 8.2 0 1 8.26667 0 1 8.33333 0 1 8.4 0 1 8.46667 0 1 8.53333 0 1 8.6 0 1 8.66667 0 1 8.73333 0 1 8.8 0 1 8.86667 0 1 8.93333 0 1 9 0 1 9.06667 0 1 9.13333 0 1 9.2 0 1 9.26667 0 1 9.33333 0 1 9.4 0 1 9.46667 0 1 9.53333 0 1 9.6 0 1 9.66667 0 1 9.73333 0 1 9.8 0 1 9.86667 0 1 9.93333 0 1 0.0666667 0 1 0.133333 0 1 0.2 0 1 0.266667 0 1 0.333333 0 1 0.4 0 1 0.466667 0 1 0.533333 0 1 0.6 0 1 0.666667 0 1 0.733333 0 1 0.8 0 1 0.866667 0 1 0.933333 0 0.3 0.0666667 0 0.3 0.133333 0 0.3 0.2 0 0.3 0.266667 0 0.3 0.333333 0 0.3 0.4 0 0.3 0.466667 0 0.3 0.533333 0 0.3 0.6 0 0.3 0.666667 0 0.3 0.733333 0 0.3 0.8 0 0.3 0.866667 0 0.3 0.933333 0 0.2 0.933333 0 0.2 0.866667 0 0.2 0.8 0 0.2 0.733333 0 0.2 0.666667 0 0.2 0.6 0 0.2 0.533333 0 0.2 0.466667 0 0.2 0.4 0 0.2 0.333333 0 0.2 0.266667 0 0.2 0.2 0 0.2 0.133333 0 0.2 0.0666667 0 -0.3 0.933333 0 -0.3 0.866667 0 -0.3 0.8 0 -0.3 0.733333 0 -0.3 0.666667 0 -0.3 0.6 0 -0.3 0.533333 0 -0.3 0.466667 0 -0.3 0.4 0 -0.3 0.333333 0 -0.3 0.266667 0 -0.3 0.2 0 -0.3 0.133333 0 -0.3 0.0666667 0 -0.2 0.0666667 0 -0.2 0.133333 0 -0.2 0.2 0 -0.2 0.266667 0 -0.2 0.333333 0 -0.2 0.4 0 -0.2 0.466667 0 -0.2 0.533333 0 -0.2 0.6 0 -0.2 0.666667 0 -0.2 0.733333 0 -0.2 0.8 0 -0.2 0.866667 0 -0.2 0.933333 0 -1 0.933333 0 -1 0.866667 0 -1 0.8 0 -1 0.733333 0 -1 0.666667 0 -1 0.6 0 -1 0.533333 0 -1 0.466667 0 -1 0.4 0 -1 0.333333 0 -1 0.266667 0 -1 0.2 0 -1 0.133333 0 -1 0.0666667 0 -0.18 1 0 -0.16 1 0 -0.14 1 0 -0.12 1 0 -0.1 1 0 -0.08 1 0 -0.06 1 0 -0.04 1 0 -0.02 1 0 0 1 0 0.02 1 0 0.04 1 0 0.06 1 0 0.08 1 0 0.1 1 0 0.12 1 0 0.14 1 0 0.16 1 0 0.18 1 0 0.18 0 0 0.16 0 0 0.14 0 0 0.12 0 0 0.1 0 0 0.08 0 0 0.06 0 0 0.04 0 0 0.02 0 0 0 0 0 -0.02 0 0 -0.04 0 0 -0.06 0 0 -0.08 0 0 -0.1 0 0 -0.12 0 0 -0.14 0 0 -0.16 0 0 -0.18 0 0 0.18 10 0 0.16 10 0 0.14 10 0 0.12 10 0 0.1 10 0 0.08 10 0 0.06 10 0 0.04 10 0 0.02 10 0 0 10 0 -0.02 10 0 -0.04 10 0 -0.06 10 0 -0.08 10 0 -0.1 10 0 -0.12 10 0 -0.14 10 0 -0.16 10 0 -0.18 10 0 0.98 10 0 0.96 10 0 0.94 10 0 0.92 10 0 0.9 10 0 0.88 10 0 0.86 10 0 0.84 10 0 0.82 10 0 0.8 10 0 0.78 10 0 0.76 10 0 0.74 10 0 0.72 10 0 0.7 10 0 0.68 10 0 0.66 10 0 0.64 10 0 0.62 10 0 0.6 10 0 0.58 10 0 0.56 10 0 0.54 10 0 0.52 10 0 0.5 10 0 0.48 10 0 0.46 10 0 0.44 10 0 0.42 10 0 0.4 10 0 0.38 10 0 0.36 10 0 0.34 10 0 0.32 10 0 0.32 1 0 0.34 1 0 0.36 1 0 0.38 1 0 0.4 1 0 0.42 1 0 0.44 1 0 0.46 1 0 0.48 1 0 0.5 1 0 0.52 1 0 0.54 1 0 0.56 1 0 0.58 1 0 0.6 1 0 0.62 1 0 0.64 1 0 0.66 1 0 0.68 1 0 0.7 1 0 0.72 1 0 0.74 1 0 0.76 1 0 0.78 1 0 0.8 1 0 0.82 1 0 0.84 1 0 0.86 1 0 0.88 1 0 0.9 1 0 0.92 1 0 0.94 1 0 0.96 1 0 0.98 1 0 0.98 0 0 0.96 0 0 0.94 0 0 0.92 0 0 0.9 0 0 0.88 0 0 0.86 0 0 0.84 0 0 0.82 0 0 0.8 0 0 0.78 0 0 0.76 0 0 0.74 0 0 0.72 0 0 0.7 0 0 0.68 0 0 0.66 0 0 0.64 0 0 0.62 0 0 0.6 0 0 0.58 0 0 0.56 0 0 0.54 0 0 0.52 0 0 0.5 0 0 0.48 0 0 0.46 0 0 0.44 0 0 0.42 0 0 0.4 0 0 0.38 0 0 0.36 0 0 0.34 0 0 0.32 0 0 -0.32 0 0 -0.34 0 0 -0.36 0 0 -0.38 0 0 -0.4 0 0 -0.42 0 0 -0.44 0 0 -0.46 0 0 -0.48 0 0 -0.5 0 0 -0.52 0 0 -0.54 0 0 -0.56 0 0 -0.58 0 0 -0.6 0 0 -0.62 0 0 -0.64 0 0 -0.66 0 0 -0.68 0 0 -0.7 0 0 -0.72 0 0 -0.74 0 0 -0.76 0 0 -0.78 0 0 -0.8 0 0 -0.82 0 0 -0.84 0 0 -0.86 0 0 -0.88 0 0 -0.9 0 0 -0.92 0 0 -0.94 0 0 -0.96 0 0 -0.98 0 0 -0.98 1 0 -0.96 1 0 -0.94 1 0 -0.92 1 0 -0.9 1 0 -0.88 1 0 -0.86 1 0 -0.84 1 0 -0.82 1 0 -0.8 1 0 -0.78 1 0 -0.76 1 0 -0.74 1 0 -0.72 1 0 -0.7 1 0 -0.68 1 0 -0.66 1 0 -0.64 1 0 -0.62 1 0 -0.6 1 0 -0.58 1 0 -0.56 1 0 -0.54 1 0 -0.52 1 0 -0.5 1 0 -0.48 1 0 -0.46 1 0 -0.44 1 0 -0.42 1 0 -0.4 1 0 -0.38 1 0 -0.36 1 0 -0.34 1 0 -0.32 1 0 -0.32 10 0 -0.34 10 0 -0.36 10 0 -0.38 10 0 -0.4 10 0 -0.42 10 0 -0.44 10 0 -0.46 10 0 -0.48 10 0 -0.5 10 0 -0.52 10 0 -0.54 10 0 -0.56 10 0 -0.58 10 0 -0.6 10 0 -0.62 10 0 -0.64 10 0 -0.66 10 0 -0.68 10 0 -0.7 10 0 -0.72 10 0 -0.74 10 0 -0.76 10 0 -0.78 10 0 -0.8 10 0 -0.82 10 0 -0.84 10 0 -0.86 10 0 -0.88 10 0 -0.9 10 0 -0.92 10 0 -0.94 10 0 -0.96 10 0 -0.98 10 0 0.28 1 0 0.26 1 0 0.24 1 0 0.22 1 0 -0.22 1 0 -0.24 1 0 -0.26 1 0 -0.28 1 0 0.28 10 0 0.26 10 0 0.24 10 0 0.22 10 0 -0.22 10 0 -0.24 10 0 -0.26 10 0 -0.28 10 0 0.98 0.933333 0 0.96 0.933333 0 0.94 0.933333 0 0.92 0.933333 0 0.9 0.933333 0 0.88 0.933333 0 0.86 0.933333 0 0.84 0.933333 0 0.82 0.933333 0 0.8 0.933333 0 0.78 0.933333 0 0.76 0.933333 0 0.74 0.933333 0 0.72 0.933333 0 0.7 0.933333 0 0.68 0.933333 0 0.66 0.933333 0 0.64 0.933333 0 0.62 0.933333 0 0.6 0.933333 0 0.58 0.933333 0 0.56 0.933333 0 0.54 0.933333 0 0.52 0.933333 0 0.5 0.933333 0 0.48 0.933333 0 0.46 0.933333 0 0.44 0.933333 0 0.42 0.933333 0 0.4 0.933333 0 0.38 0.933333 0 0.36 0.933333 0 0.34 0.933333 0 0.32 0.933333 0 0.98 0.866667 0 0.96 0.866667 0 0.94 0.866667 0 0.92 0.866667 0 0.9 0.866667 0 0.88 0.866667 0 0.86 0.866667 0 0.84 0.866667 0 0.82 0.866667 0 0.8 0.866667 0 0.78 0.866667 0 0.76 0.866667 0 0.74 0.866667 0 0.72 0.866667 0 0.7 0.866667 0 0.68 0.866667 0 0.66 0.866667 0 0.64 0.866667 0 0.62 0.866667 0 0.6 0.866667 0 0.58 0.866667 0 0.56 0.866667 0 0.54 0.866667 0 0.52 0.866667 0 0.5 0.866667 0 0.48 0.866667 0 0.46 0.866667 0 0.44 0.866667 0 0.42 0.866667 0 0.4 0.866667 0 0.38 0.866667 0 0.36 0.866667 0 0.34 0.866667 0 0.32 0.866667 0 0.98 0.8 0 0.96 0.8 0 0.94 0.8 0 0.92 0.8 0 0.9 0.8 0 0.88 0.8 0 0.86 0.8 0 0.84 0.8 0 0.82 0.8 0 0.8 0.8 0 0.78 0.8 0 0.76 0.8 0 0.74 0.8 0 0.72 0.8 0 0.7 0.8 0 0.68 0.8 0 0.66 0.8 0 0.64 0.8 0 0.62 0.8 0 0.6 0.8 0 0.58 0.8 0 0.56 0.8 0 0.54 0.8 0 0.52 0.8 0 0.5 0.8 0 0.48 0.8 0 0.46 0.8 0 0.44 0.8 0 0.42 0.8 0 0.4 0.8 0 0.38 0.8 0 0.36 0.8 0 0.34 0.8 0 0.32 0.8 0 0.98 0.733333 0 0.96 0.733333 0 0.94 0.733333 0 0.92 0.733333 0 0.9 0.733333 0 0.88 0.733333 0 0.86 0.733333 0 0.84 0.733333 0 0.82 0.733333 0 0.8 0.733333 0 0.78 0.733333 0 0.76 0.733333 0 0.74 0.733333 0 0.72 0.733333 0 0.7 0.733333 0 0.68 0.733333 0 0.66 0.733333 0 0.64 0.733333 0 0.62 0.733333 0 0.6 0.733333 0 0.58 0.733333 0 0.56 0.733333 0 0.54 0.733333 0 0.52 0.733333 0 0.5 0.733333 0 0.48 0.733333 0 0.46 0.733333 0 0.44 0.733333 0 0.42 0.733333 0 0.4 0.733333 0 0.38 0.733333 0 0.36 0.733333 0 0.34 0.733333 0 0.32 0.733333 0 0.98 0.666667 0 0.96 0.666667 0 0.94 0.666667 0 0.92 0.666667 0 0.9 0.666667 0 0.88 0.666667 0 0.86 0.666667 0 0.84 0.666667 0 0.82 0.666667 0 0.8 0.666667 0 0.78 0.666667 0 0.76 0.666667 0 0.74 0.666667 0 0.72 0.666667 0 0.7 0.666667 0 0.68 0.666667 0 0.66 0.666667 0 0.64 0.666667 0 0.62 0.666667 0 0.6 0.666667 0 0.58 0.666667 0 0.56 0.666667 0 0.54 0.666667 0 0.52 0.666667 0 0.5 0.666667 0 0.48 0.666667 0 0.46 0.666667 0 0.44 0.666667 0 0.42 0.666667 0 0.4 0.666667 0 0.38 0.666667 0 0.36 0.666667 0 0.34 0.666667 0 0.32 0.666667 0 0.98 0.6 0 0.96 0.6 0 0.94 0.6 0 0.92 0.6 0 0.9 0.6 0 0.88 0.6 0 0.86 0.6 0 0.84 0.6 0 0.82 0.6 0 0.8 0.6 0 0.78 0.6 0 0.76 0.6 0 0.74 0.6 0 0.72 0.6 0 0.7 0.6 0 0.68 0.6 0 0.66 0.6 0 0.64 0.6 0 0.62 0.6 0 0.6 0.6 0 0.58 0.6 0 0.56 0.6 0 0.54 0.6 0 0.52 0.6 0 0.5 0.6 0 0.48 0.6 0 0.46 0.6 0 0.44 0.6 0 0.42 0.6 0 0.4 0.6 0 0.38 0.6 0 0.36 0.6 0 0.34 0.6 0 0.32 0.6 0 0.98 0.533333 0 0.96 0.533333 0 0.94 0.533333 0 0.92 0.533333 0 0.9 0.533333 0 0.88 0.533333 0 0.86 0.533333 0 0.84 0.533333 0 0.82 0.533333 0 0.8 0.533333 0 0.78 0.533333 0 0.76 0.533333 0 0.74 0.533333 0 0.72 0.533333 0 0.7 0.533333 0 0.68 0.533333 0 0.66 0.533333 0 0.64 0.533333 0 0.62 0.533333 0 0.6 0.533333 0 0.58 0.533333 0 0.56 0.533333 0 0.54 0.533333 0 0.52 0.533333 0 0.5 0.533333 0 0.48 0.533333 0 0.46 0.533333 0 0.44 0.533333 0 0.42 0.533333 0 0.4 0.533333 0 0.38 0.533333 0 0.36 0.533333 0 0.34 0.533333 0 0.32 0.533333 0 0.98 0.466667 0 0.96 0.466667 0 0.94 0.466667 0 0.92 0.466667 0 0.9 0.466667 0 0.88 0.466667 0 0.86 0.466667 0 0.84 0.466667 0 0.82 0.466667 0 0.8 0.466667 0 0.78 0.466667 0 0.76 0.466667 0 0.74 0.466667 0 0.72 0.466667 0 0.7 0.466667 0 0.68 0.466667 0 0.66 0.466667 0 0.64 0.466667 0 0.62 0.466667 0 0.6 0.466667 0 0.58 0.466667 0 0.56 0.466667 0 0.54 0.466667 0 0.52 0.466667 0 0.5 0.466667 0 0.48 0.466667 0 0.46 0.466667 0 0.44 0.466667 0 0.42 0.466667 0 0.4 0.466667 0 0.38 0.466667 0 0.36 0.466667 0 0.34 0.466667 0 0.32 0.466667 0 0.98 0.4 0 0.96 0.4 0 0.94 0.4 0 0.92 0.4 0 0.9 0.4 0 0.88 0.4 0 0.86 0.4 0 0.84 0.4 0 0.82 0.4 0 0.8 0.4 0 0.78 0.4 0 0.76 0.4 0 0.74 0.4 0 0.72 0.4 0 0.7 0.4 0 0.68 0.4 0 0.66 0.4 0 0.64 0.4 0 0.62 0.4 0 0.6 0.4 0 0.58 0.4 0 0.56 0.4 0 0.54 0.4 0 0.52 0.4 0 0.5 0.4 0 0.48 0.4 0 0.46 0.4 0 0.44 0.4 0 0.42 0.4 0 0.4 0.4 0 0.38 0.4 0 0.36 0.4 0 0.34 0.4 0 0.32 0.4 0 0.98 0.333333 0 0.96 0.333333 0 0.94 0.333333 0 0.92 0.333333 0 0.9 0.333333 0 0.88 0.333333 0 0.86 0.333333 0 0.84 0.333333 0 0.82 0.333333 0 0.8 0.333333 0 0.78 0.333333 0 0.76 0.333333 0 0.74 0.333333 0 0.72 0.333333 0 0.7 0.333333 0 0.68 0.333333 0 0.66 0.333333 0 0.64 0.333333 0 0.62 0.333333 0 0.6 0.333333 0 0.58 0.333333 0 0.56 0.333333 0 0.54 0.333333 0 0.52 0.333333 0 0.5 0.333333 0 0.48 0.333333 0 0.46 0.333333 0 0.44 0.333333 0 0.42 0.333333 0 0.4 0.333333 0 0.38 0.333333 0 0.36 0.333333 0 0.34 0.333333 0 0.32 0.333333 0 0.98 0.266667 0 0.96 0.266667 0 0.94 0.266667 0 0.92 0.266667 0 0.9 0.266667 0 0.88 0.266667 0 0.86 0.266667 0 0.84 0.266667 0 0.82 0.266667 0 0.8 0.266667 0 0.78 0.266667 0 0.76 0.266667 0 0.74 0.266667 0 0.72 0.266667 0 0.7 0.266667 0 0.68 0.266667 0 0.66 0.266667 0 0.64 0.266667 0 0.62 0.266667 0 0.6 0.266667 0 0.58 0.266667 0 0.56 0.266667 0 0.54 0.266667 0 0.52 0.266667 0 0.5 0.266667 0 0.48 0.266667 0 0.46 0.266667 0 0.44 0.266667 0 0.42 0.266667 0 0.4 0.266667 0 0.38 0.266667 0 0.36 0.266667 0 0.34 0.266667 0 0.32 0.266667 0 0.98 0.2 0 0.96 0.2 0 0.94 0.2 0 0.92 0.2 0 0.9 0.2 0 0.88 0.2 0 0.86 0.2 0 0.84 0.2 0 0.82 0.2 0 0.8 0.2 0 0.78 0.2 0 0.76 0.2 0 0.74 0.2 0 0.72 0.2 0 0.7 0.2 0 0.68 0.2 0 0.66 0.2 0 0.64 0.2 0 0.62 0.2 0 0.6 0.2 0 0.58 0.2 0 0.56 0.2 0 0.54 0.2 0 0.52 0.2 0 0.5 0.2 0 0.48 0.2 0 0.46 0.2 0 0.44 0.2 0 0.42 0.2 0 0.4 0.2 0 0.38 0.2 0 0.36 0.2 0 0.34 0.2 0 0.32 0.2 0 0.98 0.133333 0 0.96 0.133333 0 0.94 0.133333 0 0.92 0.133333 0 0.9 0.133333 0 0.88 0.133333 0 0.86 0.133333 0 0.84 0.133333 0 0.82 0.133333 0 0.8 0.133333 0 0.78 0.133333 0 0.76 0.133333 0 0.74 0.133333 0 0.72 0.133333 0 0.7 0.133333 0 0.68 0.133333 0 0.66 0.133333 0 0.64 0.133333 0 0.62 0.133333 0 0.6 0.133333 0 0.58 0.133333 0 0.56 0.133333 0 0.54 0.133333 0 0.52 0.133333 0 0.5 0.133333 0 0.48 0.133333 0 0.46 0.133333 0 0.44 0.133333 0 0.42 0.133333 0 0.4 0.133333 0 0.38 0.133333 0 0.36 0.133333 0 0.34 0.133333 0 0.32 0.133333 0 0.98 0.0666667 0 0.96 0.0666667 0 0.94 0.0666667 0 0.92 0.0666667 0 0.9 0.0666667 0 0.88 0.0666667 0 0.86 0.0666667 0 0.84 0.0666667 0 0.82 0.0666667 0 0.8 0.0666667 0 0.78 0.0666667 0 0.76 0.0666667 0 0.74 0.0666667 0 0.72 0.0666667 0 0.7 0.0666667 0 0.68 0.0666667 0 0.66 0.0666667 0 0.64 0.0666667 0 0.62 0.0666667 0 0.6 0.0666667 0 0.58 0.0666667 0 0.56 0.0666667 0 0.54 0.0666667 0 0.52 0.0666667 0 0.5 0.0666667 0 0.48 0.0666667 0 0.46 0.0666667 0 0.44 0.0666667 0 0.42 0.0666667 0 0.4 0.0666667 0 0.38 0.0666667 0 0.36 0.0666667 0 0.34 0.0666667 0 0.32 0.0666667 0 0.18 0.933333 0 0.16 0.933333 0 0.14 0.933333 0 0.12 0.933333 0 0.1 0.933333 0 0.08 0.933333 0 0.06 0.933333 0 0.04 0.933333 0 0.02 0.933333 0 1.04083e-17 0.933333 0 -0.02 0.933333 0 -0.04 0.933333 0 -0.06 0.933333 0 -0.08 0.933333 0 -0.1 0.933333 0 -0.12 0.933333 0 -0.14 0.933333 0 -0.16 0.933333 0 -0.18 0.933333 0 0.18 0.866667 0 0.16 0.866667 0 0.14 0.866667 0 0.12 0.866667 0 0.1 0.866667 0 0.08 0.866667 0 0.06 0.866667 0 0.04 0.866667 0 0.02 0.866667 0 6.93889e-18 0.866667 0 -0.02 0.866667 0 -0.04 0.866667 0 -0.06 0.866667 0 -0.08 0.866667 0 -0.1 0.866667 0 -0.12 0.866667 0 -0.14 0.866667 0 -0.16 0.866667 0 -0.18 0.866667 0 0.18 0.8 0 0.16 0.8 0 0.14 0.8 0 0.12 0.8 0 0.1 0.8 0 0.08 0.8 0 0.06 0.8 0 0.04 0.8 0 0.02 0.8 0 1.38778e-17 0.8 0 -0.02 0.8 0 -0.04 0.8 0 -0.06 0.8 0 -0.08 0.8 0 -0.1 0.8 0 -0.12 0.8 0 -0.14 0.8 0 -0.16 0.8 0 -0.18 0.8 0 0.18 0.733333 0 0.16 0.733333 0 0.14 0.733333 0 0.12 0.733333 0 0.1 0.733333 0 0.08 0.733333 0 0.06 0.733333 0 0.04 0.733333 0 0.02 0.733333 0 -3.46945e-18 0.733333 0 -0.02 0.733333 0 -0.04 0.733333 0 -0.06 0.733333 0 -0.08 0.733333 0 -0.1 0.733333 0 -0.12 0.733333 0 -0.14 0.733333 0 -0.16 0.733333 0 -0.18 0.733333 0 0.18 0.666667 0 0.16 0.666667 0 0.14 0.666667 0 0.12 0.666667 0 0.1 0.666667 0 0.08 0.666667 0 0.06 0.666667 0 0.04 0.666667 0 0.02 0.666667 0 -6.93889e-18 0.666667 0 -0.02 0.666667 0 -0.04 0.666667 0 -0.06 0.666667 0 -0.08 0.666667 0 -0.1 0.666667 0 -0.12 0.666667 0 -0.14 0.666667 0 -0.16 0.666667 0 -0.18 0.666667 0 0.18 0.6 0 0.16 0.6 0 0.14 0.6 0 0.12 0.6 0 0.1 0.6 0 0.08 0.6 0 0.06 0.6 0 0.04 0.6 0 0.02 0.6 0 0 0.6 0 -0.02 0.6 0 -0.04 0.6 0 -0.06 0.6 0 -0.08 0.6 0 -0.1 0.6 0 -0.12 0.6 0 -0.14 0.6 0 -0.16 0.6 0 -0.18 0.6 0 0.18 0.533333 0 0.16 0.533333 0 0.14 0.533333 0 0.12 0.533333 0 0.1 0.533333 0 0.08 0.533333 0 0.06 0.533333 0 0.04 0.533333 0 0.02 0.533333 0 0 0.533333 0 -0.02 0.533333 0 -0.04 0.533333 0 -0.06 0.533333 0 -0.08 0.533333 0 -0.1 0.533333 0 -0.12 0.533333 0 -0.14 0.533333 0 -0.16 0.533333 0 -0.18 0.533333 0 0.18 0.466667 0 0.16 0.466667 0 0.14 0.466667 0 0.12 0.466667 0 0.1 0.466667 0 0.08 0.466667 0 0.06 0.466667 0 0.04 0.466667 0 0.02 0.466667 0 0 0.466667 0 -0.02 0.466667 0 -0.04 0.466667 0 -0.06 0.466667 0 -0.08 0.466667 0 -0.1 0.466667 0 -0.12 0.466667 0 -0.14 0.466667 0 -0.16 0.466667 0 -0.18 0.466667 0 0.18 0.4 0 0.16 0.4 0 0.14 0.4 0 0.12 0.4 0 0.1 0.4 0 0.08 0.4 0 0.06 0.4 0 0.04 0.4 0 0.02 0.4 0 0 0.4 0 -0.02 0.4 0 -0.04 0.4 0 -0.06 0.4 0 -0.08 0.4 0 -0.1 0.4 0 -0.12 0.4 0 -0.14 0.4 0 -0.16 0.4 0 -0.18 0.4 0 0.18 0.333333 0 0.16 0.333333 0 0.14 0.333333 0 0.12 0.333333 0 0.1 0.333333 0 0.08 0.333333 0 0.06 0.333333 0 0.04 0.333333 0 0.02 0.333333 0 0 0.333333 0 -0.02 0.333333 0 -0.04 0.333333 0 -0.06 0.333333 0 -0.08 0.333333 0 -0.1 0.333333 0 -0.12 0.333333 0 -0.14 0.333333 0 -0.16 0.333333 0 -0.18 0.333333 0 0.18 0.266667 0 0.16 0.266667 0 0.14 0.266667 0 0.12 0.266667 0 0.1 0.266667 0 0.08 0.266667 0 0.06 0.266667 0 0.04 0.266667 0 0.02 0.266667 0 0 0.266667 0 -0.02 0.266667 0 -0.04 0.266667 0 -0.06 0.266667 0 -0.08 0.266667 0 -0.1 0.266667 0 -0.12 0.266667 0 -0.14 0.266667 0 -0.16 0.266667 0 -0.18 0.266667 0 0.18 0.2 0 0.16 0.2 0 0.14 0.2 0 0.12 0.2 0 0.1 0.2 0 0.08 0.2 0 0.06 0.2 0 0.04 0.2 0 0.02 0.2 0 0 0.2 0 -0.02 0.2 0 -0.04 0.2 0 -0.06 0.2 0 -0.08 0.2 0 -0.1 0.2 0 -0.12 0.2 0 -0.14 0.2 0 -0.16 0.2 0 -0.18 0.2 0 0.18 0.133333 0 0.16 0.133333 0 0.14 0.133333 0 0.12 0.133333 0 0.1 0.133333 0 0.08 0.133333 0 0.06 0.133333 0 0.04 0.133333 0 0.02 0.133333 0 0 0.133333 0 -0.02 0.133333 0 -0.04 0.133333 0 -0.06 0.133333 0 -0.08 0.133333 0 -0.1 0.133333 0 -0.12 0.133333 0 -0.14 0.133333 0 -0.16 0.133333 0 -0.18 0.133333 0 0.18 0.0666667 0 0.16 0.0666667 0 0.14 0.0666667 0 0.12 0.0666667 0 0.1 0.0666667 0 0.08 0.0666667 0 0.06 0.0666667 0 0.04 0.0666667 0 0.02 0.0666667 0 0 0.0666667 0 -0.02 0.0666667 0 -0.04 0.0666667 0 -0.06 0.0666667 0 -0.08 0.0666667 0 -0.1 0.0666667 0 -0.12 0.0666667 0 -0.14 0.0666667 0 -0.16 0.0666667 0 -0.18 0.0666667 0 -0.98 0.0666667 0 -0.96 0.0666667 0 -0.94 0.0666667 0 -0.92 0.0666667 0 -0.9 0.0666667 0 -0.88 0.0666667 0 -0.86 0.0666667 0 -0.84 0.0666667 0 -0.82 0.0666667 0 -0.8 0.0666667 0 -0.78 0.0666667 0 -0.76 0.0666667 0 -0.74 0.0666667 0 -0.72 0.0666667 0 -0.7 0.0666667 0 -0.68 0.0666667 0 -0.66 0.0666667 0 -0.64 0.0666667 0 -0.62 0.0666667 0 -0.6 0.0666667 0 -0.58 0.0666667 0 -0.56 0.0666667 0 -0.54 0.0666667 0 -0.52 0.0666667 0 -0.5 0.0666667 0 -0.48 0.0666667 0 -0.46 0.0666667 0 -0.44 0.0666667 0 -0.42 0.0666667 0 -0.4 0.0666667 0 -0.38 0.0666667 0 -0.36 0.0666667 0 -0.34 0.0666667 0 -0.32 0.0666667 0 -0.98 0.133333 0 -0.96 0.133333 0 -0.94 0.133333 0 -0.92 0.133333 0 -0.9 0.133333 0 -0.88 0.133333 0 -0.86 0.133333 0 -0.84 0.133333 0 -0.82 0.133333 0 -0.8 0.133333 0 -0.78 0.133333 0 -0.76 0.133333 0 -0.74 0.133333 0 -0.72 0.133333 0 -0.7 0.133333 0 -0.68 0.133333 0 -0.66 0.133333 0 -0.64 0.133333 0 -0.62 0.133333 0 -0.6 0.133333 0 -0.58 0.133333 0 -0.56 0.133333 0 -0.54 0.133333 0 -0.52 0.133333 0 -0.5 0.133333 0 -0.48 0.133333 0 -0.46 0.133333 0 -0.44 0.133333 0 -0.42 0.133333 0 -0.4 0.133333 0 -0.38 0.133333 0 -0.36 0.133333 0 -0.34 0.133333 0 -0.32 0.133333 0 -0.98 0.2 0 -0.96 0.2 0 -0.94 0.2 0 -0.92 0.2 0 -0.9 0.2 0 -0.88 0.2 0 -0.86 0.2 0 -0.84 0.2 0 -0.82 0.2 0 -0.8 0.2 0 -0.78 0.2 0 -0.76 0.2 0 -0.74 0.2 0 -0.72 0.2 0 -0.7 0.2 0 -0.68 0.2 0 -0.66 0.2 0 -0.64 0.2 0 -0.62 0.2 0 -0.6 0.2 0 -0.58 0.2 0 -0.56 0.2 0 -0.54 0.2 0 -0.52 0.2 0 -0.5 0.2 0 -0.48 0.2 0 -0.46 0.2 0 -0.44 0.2 0 -0.42 0.2 0 -0.4 0.2 0 -0.38 0.2 0 -0.36 0.2 0 -0.34 0.2 0 -0.32 0.2 0 -0.98 0.266667 0 -0.96 0.266667 0 -0.94 0.266667 0 -0.92 0.266667 0 -0.9 0.266667 0 -0.88 0.266667 0 -0.86 0.266667 0 -0.84 0.266667 0 -0.82 0.266667 0 -0.8 0.266667 0 -0.78 0.266667 0 -0.76 0.266667 0 -0.74 0.266667 0 -0.72 0.266667 0 -0.7 0.266667 0 -0.68 0.266667 0 -0.66 0.266667 0 -0.64 0.266667 0 -0.62 0.266667 0 -0.6 0.266667 0 -0.58 0.266667 0 -0.56 0.266667 0 -0.54 0.266667 0 -0.52 0.266667 0 -0.5 0.266667 0 -0.48 0.266667 0 -0.46 0.266667 0 -0.44 0.266667 0 -0.42 0.266667 0 -0.4 0.266667 0 -0.38 0.266667 0 -0.36 0.266667 0 -0.34 0.266667 0 -0.32 0.266667 0 -0.98 0.333333 0 -0.96 0.333333 0 -0.94 0.333333 0 -0.92 0.333333 0 -0.9 0.333333 0 -0.88 0.333333 0 -0.86 0.333333 0 -0.84 0.333333 0 -0.82 0.333333 0 -0.8 0.333333 0 -0.78 0.333333 0 -0.76 0.333333 0 -0.74 0.333333 0 -0.72 0.333333 0 -0.7 0.333333 0 -0.68 0.333333 0 -0.66 0.333333 0 -0.64 0.333333 0 -0.62 0.333333 0 -0.6 0.333333 0 -0.58 0.333333 0 -0.56 0.333333 0 -0.54 0.333333 0 -0.52 0.333333 0 -0.5 0.333333 0 -0.48 0.333333 0 -0.46 0.333333 0 -0.44 0.333333 0 -0.42 0.333333 0 -0.4 0.333333 0 -0.38 0.333333 0 -0.36 0.333333 0 -0.34 0.333333 0 -0.32 0.333333 0 -0.98 0.4 0 -0.96 0.4 0 -0.94 0.4 0 -0.92 0.4 0 -0.9 0.4 0 -0.88 0.4 0 -0.86 0.4 0 -0.84 0.4 0 -0.82 0.4 0 -0.8 0.4 0 -0.78 0.4 0 -0.76 0.4 0 -0.74 0.4 0 -0.72 0.4 0 -0.7 0.4 0 -0.68 0.4 0 -0.66 0.4 0 -0.64 0.4 0 -0.62 0.4 0 -0.6 0.4 0 -0.58 0.4 0 -0.56 0.4 0 -0.54 0.4 0 -0.52 0.4 0 -0.5 0.4 0 -0.48 0.4 0 -0.46 0.4 0 -0.44 0.4 0 -0.42 0.4 0 -0.4 0.4 0 -0.38 0.4 0 -0.36 0.4 0 -0.34 0.4 0 -0.32 0.4 0 -0.98 0.466667 0 -0.96 0.466667 0 -0.94 0.466667 0 -0.92 0.466667 0 -0.9 0.466667 0 -0.88 0.466667 0 -0.86 0.466667 0 -0.84 0.466667 0 -0.82 0.466667 0 -0.8 0.466667 0 -0.78 0.466667 0 -0.76 0.466667 0 -0.74 0.466667 0 -0.72 0.466667 0 -0.7 0.466667 0 -0.68 0.466667 0 -0.66 0.466667 0 -0.64 0.466667 0 -0.62 0.466667 0 -0.6 0.466667 0 -0.58 0.466667 0 -0.56 0.466667 0 -0.54 0.466667 0 -0.52 0.466667 0 -0.5 0.466667 0 -0.48 0.466667 0 -0.46 0.466667 0 -0.44 0.466667 0 -0.42 0.466667 0 -0.4 0.466667 0 -0.38 0.466667 0 -0.36 0.466667 0 -0.34 0.466667 0 -0.32 0.466667 0 -0.98 0.533333 0 -0.96 0.533333 0 -0.94 0.533333 0 -0.92 0.533333 0 -0.9 0.533333 0 -0.88 0.533333 0 -0.86 0.533333 0 -0.84 0.533333 0 -0.82 0.533333 0 -0.8 0.533333 0 -0.78 0.533333 0 -0.76 0.533333 0 -0.74 0.533333 0 -0.72 0.533333 0 -0.7 0.533333 0 -0.68 0.533333 0 -0.66 0.533333 0 -0.64 0.533333 0 -0.62 0.533333 0 -0.6 0.533333 0 -0.58 0.533333 0 -0.56 0.533333 0 -0.54 0.533333 0 -0.52 0.533333 0 -0.5 0.533333 0 -0.48 0.533333 0 -0.46 0.533333 0 -0.44 0.533333 0 -0.42 0.533333 0 -0.4 0.533333 0 -0.38 0.533333 0 -0.36 0.533333 0 -0.34 0.533333 0 -0.32 0.533333 0 -0.98 0.6 0 -0.96 0.6 0 -0.94 0.6 0 -0.92 0.6 0 -0.9 0.6 0 -0.88 0.6 0 -0.86 0.6 0 -0.84 0.6 0 -0.82 0.6 0 -0.8 0.6 0 -0.78 0.6 0 -0.76 0.6 0 -0.74 0.6 0 -0.72 0.6 0 -0.7 0.6 0 -0.68 0.6 0 -0.66 0.6 0 -0.64 0.6 0 -0.62 0.6 0 -0.6 0.6 0 -0.58 0.6 0 -0.56 0.6 0 -0.54 0.6 0 -0.52 0.6 0 -0.5 0.6 0 -0.48 0.6 0 -0.46 0.6 0 -0.44 0.6 0 -0.42 0.6 0 -0.4 0.6 0 -0.38 0.6 0 -0.36 0.6 0 -0.34 0.6 0 -0.32 0.6 0 -0.98 0.666667 0 -0.96 0.666667 0 -0.94 0.666667 0 -0.92 0.666667 0 -0.9 0.666667 0 -0.88 0.666667 0 -0.86 0.666667 0 -0.84 0.666667 0 -0.82 0.666667 0 -0.8 0.666667 0 -0.78 0.666667 0 -0.76 0.666667 0 -0.74 0.666667 0 -0.72 0.666667 0 -0.7 0.666667 0 -0.68 0.666667 0 -0.66 0.666667 0 -0.64 0.666667 0 -0.62 0.666667 0 -0.6 0.666667 0 -0.58 0.666667 0 -0.56 0.666667 0 -0.54 0.666667 0 -0.52 0.666667 0 -0.5 0.666667 0 -0.48 0.666667 0 -0.46 0.666667 0 -0.44 0.666667 0 -0.42 0.666667 0 -0.4 0.666667 0 -0.38 0.666667 0 -0.36 0.666667 0 -0.34 0.666667 0 -0.32 0.666667 0 -0.98 0.733333 0 -0.96 0.733333 0 -0.94 0.733333 0 -0.92 0.733333 0 -0.9 0.733333 0 -0.88 0.733333 0 -0.86 0.733333 0 -0.84 0.733333 0 -0.82 0.733333 0 -0.8 0.733333 0 -0.78 0.733333 0 -0.76 0.733333 0 -0.74 0.733333 0 -0.72 0.733333 0 -0.7 0.733333 0 -0.68 0.733333 0 -0.66 0.733333 0 -0.64 0.733333 0 -0.62 0.733333 0 -0.6 0.733333 0 -0.58 0.733333 0 -0.56 0.733333 0 -0.54 0.733333 0 -0.52 0.733333 0 -0.5 0.733333 0 -0.48 0.733333 0 -0.46 0.733333 0 -0.44 0.733333 0 -0.42 0.733333 0 -0.4 0.733333 0 -0.38 0.733333 0 -0.36 0.733333 0 -0.34 0.733333 0 -0.32 0.733333 0 -0.98 0.8 0 -0.96 0.8 0 -0.94 0.8 0 -0.92 0.8 0 -0.9 0.8 0 -0.88 0.8 0 -0.86 0.8 0 -0.84 0.8 0 -0.82 0.8 0 -0.8 0.8 0 -0.78 0.8 0 -0.76 0.8 0 -0.74 0.8 0 -0.72 0.8 0 -0.7 0.8 0 -0.68 0.8 0 -0.66 0.8 0 -0.64 0.8 0 -0.62 0.8 0 -0.6 0.8 0 -0.58 0.8 0 -0.56 0.8 0 -0.54 0.8 0 -0.52 0.8 0 -0.5 0.8 0 -0.48 0.8 0 -0.46 0.8 0 -0.44 0.8 0 -0.42 0.8 0 -0.4 0.8 0 -0.38 0.8 0 -0.36 0.8 0 -0.34 0.8 0 -0.32 0.8 0 -0.98 0.866667 0 -0.96 0.866667 0 -0.94 0.866667 0 -0.92 0.866667 0 -0.9 0.866667 0 -0.88 0.866667 0 -0.86 0.866667 0 -0.84 0.866667 0 -0.82 0.866667 0 -0.8 0.866667 0 -0.78 0.866667 0 -0.76 0.866667 0 -0.74 0.866667 0 -0.72 0.866667 0 -0.7 0.866667 0 -0.68 0.866667 0 -0.66 0.866667 0 -0.64 0.866667 0 -0.62 0.866667 0 -0.6 0.866667 0 -0.58 0.866667 0 -0.56 0.866667 0 -0.54 0.866667 0 -0.52 0.866667 0 -0.5 0.866667 0 -0.48 0.866667 0 -0.46 0.866667 0 -0.44 0.866667 0 -0.42 0.866667 0 -0.4 0.866667 0 -0.38 0.866667 0 -0.36 0.866667 0 -0.34 0.866667 0 -0.32 0.866667 0 -0.98 0.933333 0 -0.96 0.933333 0 -0.94 0.933333 0 -0.92 0.933333 0 -0.9 0.933333 0 -0.88 0.933333 0 -0.86 0.933333 0 -0.84 0.933333 0 -0.82 0.933333 0 -0.8 0.933333 0 -0.78 0.933333 0 -0.76 0.933333 0 -0.74 0.933333 0 -0.72 0.933333 0 -0.7 0.933333 0 -0.68 0.933333 0 -0.66 0.933333 0 -0.64 0.933333 0 -0.62 0.933333 0 -0.6 0.933333 0 -0.58 0.933333 0 -0.56 0.933333 0 -0.54 0.933333 0 -0.52 0.933333 0 -0.5 0.933333 0 -0.48 0.933333 0 -0.46 0.933333 0 -0.44 0.933333 0 -0.42 0.933333 0 -0.4 0.933333 0 -0.38 0.933333 0 -0.36 0.933333 0 -0.34 0.933333 0 -0.32 0.933333 0 0.98 1.06667 0 0.96 1.06667 0 0.94 1.06667 0 0.92 1.06667 0 0.9 1.06667 0 0.88 1.06667 0 0.86 1.06667 0 0.84 1.06667 0 0.82 1.06667 0 0.8 1.06667 0 0.78 1.06667 0 0.76 1.06667 0 0.74 1.06667 0 0.72 1.06667 0 0.7 1.06667 0 0.68 1.06667 0 0.66 1.06667 0 0.64 1.06667 0 0.62 1.06667 0 0.6 1.06667 0 0.58 1.06667 0 0.56 1.06667 0 0.54 1.06667 0 0.52 1.06667 0 0.5 1.06667 0 0.48 1.06667 0 0.46 1.06667 0 0.44 1.06667 0 0.42 1.06667 0 0.4 1.06667 0 0.38 1.06667 0 0.36 1.06667 0 0.34 1.06667 0 0.32 1.06667 0 0.3 1.06667 0 0.28 1.06667 0 0.26 1.06667 0 0.24 1.06667 0 0.22 1.06667 0 0.2 1.06667 0 0.18 1.06667 0 0.16 1.06667 0 0.14 1.06667 0 0.12 1.06667 0 0.1 1.06667 0 0.08 1.06667 0 0.06 1.06667 0 0.04 1.06667 0 0.02 1.06667 0 -1.73472e-18 1.06667 0 -0.02 1.06667 0 -0.04 1.06667 0 -0.06 1.06667 0 -0.08 1.06667 0 -0.1 1.06667 0 -0.12 1.06667 0 -0.14 1.06667 0 -0.16 1.06667 0 -0.18 1.06667 0 -0.2 1.06667 0 -0.22 1.06667 0 -0.24 1.06667 0 -0.26 1.06667 0 -0.28 1.06667 0 -0.3 1.06667 0 -0.32 1.06667 0 -0.34 1.06667 0 -0.36 1.06667 0 -0.38 1.06667 0 -0.4 1.06667 0 -0.42 1.06667 0 -0.44 1.06667 0 -0.46 1.06667 0 -0.48 1.06667 0 -0.5 1.06667 0 -0.52 1.06667 0 -0.54 1.06667 0 -0.56 1.06667 0 -0.58 1.06667 0 -0.6 1.06667 0 -0.62 1.06667 0 -0.64 1.06667 0 -0.66 1.06667 0 -0.68 1.06667 0 -0.7 1.06667 0 -0.72 1.06667 0 -0.74 1.06667 0 -0.76 1.06667 0 -0.78 1.06667 0 -0.8 1.06667 0 -0.82 1.06667 0 -0.84 1.06667 0 -0.86 1.06667 0 -0.88 1.06667 0 -0.9 1.06667 0 -0.92 1.06667 0 -0.94 1.06667 0 -0.96 1.06667 0 -0.98 1.06667 0 0.98 1.13333 0 0.96 1.13333 0 0.94 1.13333 0 0.92 1.13333 0 0.9 1.13333 0 0.88 1.13333 0 0.86 1.13333 0 0.84 1.13333 0 0.82 1.13333 0 0.8 1.13333 0 0.78 1.13333 0 0.76 1.13333 0 0.74 1.13333 0 0.72 1.13333 0 0.7 1.13333 0 0.68 1.13333 0 0.66 1.13333 0 0.64 1.13333 0 0.62 1.13333 0 0.6 1.13333 0 0.58 1.13333 0 0.56 1.13333 0 0.54 1.13333 0 0.52 1.13333 0 0.5 1.13333 0 0.48 1.13333 0 0.46 1.13333 0 0.44 1.13333 0 0.42 1.13333 0 0.4 1.13333 0 0.38 1.13333 0 0.36 1.13333 0 0.34 1.13333 0 0.32 1.13333 0 0.3 1.13333 0 0.28 1.13333 0 0.26 1.13333 0 0.24 1.13333 0 0.22 1.13333 0 0.2 1.13333 0 0.18 1.13333 0 0.16 1.13333 0 0.14 1.13333 0 0.12 1.13333 0 0.1 1.13333 0 0.08 1.13333 0 0.06 1.13333 0 0.04 1.13333 0 0.02 1.13333 0 -3.46945e-18 1.13333 0 -0.02 1.13333 0 -0.04 1.13333 0 -0.06 1.13333 0 -0.08 1.13333 0 -0.1 1.13333 0 -0.12 1.13333 0 -0.14 1.13333 0 -0.16 1.13333 0 -0.18 1.13333 0 -0.2 1.13333 0 -0.22 1.13333 0 -0.24 1.13333 0 -0.26 1.13333 0 -0.28 1.13333 0 -0.3 1.13333 0 -0.32 1.13333 0 -0.34 1.13333 0 -0.36 1.13333 0 -0.38 1.13333 0 -0.4 1.13333 0 -0.42 1.13333 0 -0.44 1.13333 0 -0.46 1.13333 0 -0.48 1.13333 0 -0.5 1.13333 0 -0.52 1.13333 0 -0.54 1.13333 0 -0.56 1.13333 0 -0.58 1.13333 0 -0.6 1.13333 0 -0.62 1.13333 0 -0.64 1.13333 0 -0.66 1.13333 0 -0.68 1.13333 0 -0.7 1.13333 0 -0.72 1.13333 0 -0.74 1.13333 0 -0.76 1.13333 0 -0.78 1.13333 0 -0.8 1.13333 0 -0.82 1.13333 0 -0.84 1.13333 0 -0.86 1.13333 0 -0.88 1.13333 0 -0.9 1.13333 0 -0.92 1.13333 0 -0.94 1.13333 0 -0.96 1.13333 0 -0.98 1.13333 0 0.98 1.2 0 0.96 1.2 0 0.94 1.2 0 0.92 1.2 0 0.9 1.2 0 0.88 1.2 0 0.86 1.2 0 0.84 1.2 0 0.82 1.2 0 0.8 1.2 0 0.78 1.2 0 0.76 1.2 0 0.74 1.2 0 0.72 1.2 0 0.7 1.2 0 0.68 1.2 0 0.66 1.2 0 0.64 1.2 0 0.62 1.2 0 0.6 1.2 0 0.58 1.2 0 0.56 1.2 0 0.54 1.2 0 0.52 1.2 0 0.5 1.2 0 0.48 1.2 0 0.46 1.2 0 0.44 1.2 0 0.42 1.2 0 0.4 1.2 0 0.38 1.2 0 0.36 1.2 0 0.34 1.2 0 0.32 1.2 0 0.3 1.2 0 0.28 1.2 0 0.26 1.2 0 0.24 1.2 0 0.22 1.2 0 0.2 1.2 0 0.18 1.2 0 0.16 1.2 0 0.14 1.2 0 0.12 1.2 0 0.1 1.2 0 0.08 1.2 0 0.06 1.2 0 0.04 1.2 0 0.02 1.2 0 -3.46945e-18 1.2 0 -0.02 1.2 0 -0.04 1.2 0 -0.06 1.2 0 -0.08 1.2 0 -0.1 1.2 0 -0.12 1.2 0 -0.14 1.2 0 -0.16 1.2 0 -0.18 1.2 0 -0.2 1.2 0 -0.22 1.2 0 -0.24 1.2 0 -0.26 1.2 0 -0.28 1.2 0 -0.3 1.2 0 -0.32 1.2 0 -0.34 1.2 0 -0.36 1.2 0 -0.38 1.2 0 -0.4 1.2 0 -0.42 1.2 0 -0.44 1.2 0 -0.46 1.2 0 -0.48 1.2 0 -0.5 1.2 0 -0.52 1.2 0 -0.54 1.2 0 -0.56 1.2 0 -0.58 1.2 0 -0.6 1.2 0 -0.62 1.2 0 -0.64 1.2 0 -0.66 1.2 0 -0.68 1.2 0 -0.7 1.2 0 -0.72 1.2 0 -0.74 1.2 0 -0.76 1.2 0 -0.78 1.2 0 -0.8 1.2 0 -0.82 1.2 0 -0.84 1.2 0 -0.86 1.2 0 -0.88 1.2 0 -0.9 1.2 0 -0.92 1.2 0 -0.94 1.2 0 -0.96 1.2 0 -0.98 1.2 0 0.98 1.26667 0 0.96 1.26667 0 0.94 1.26667 0 0.92 1.26667 0 0.9 1.26667 0 0.88 1.26667 0 0.86 1.26667 0 0.84 1.26667 0 0.82 1.26667 0 0.8 1.26667 0 0.78 1.26667 0 0.76 1.26667 0 0.74 1.26667 0 0.72 1.26667 0 0.7 1.26667 0 0.68 1.26667 0 0.66 1.26667 0 0.64 1.26667 0 0.62 1.26667 0 0.6 1.26667 0 0.58 1.26667 0 0.56 1.26667 0 0.54 1.26667 0 0.52 1.26667 0 0.5 1.26667 0 0.48 1.26667 0 0.46 1.26667 0 0.44 1.26667 0 0.42 1.26667 0 0.4 1.26667 0 0.38 1.26667 0 0.36 1.26667 0 0.34 1.26667 0 0.32 1.26667 0 0.3 1.26667 0 0.28 1.26667 0 0.26 1.26667 0 0.24 1.26667 0 0.22 1.26667 0 0.2 1.26667 0 0.18 1.26667 0 0.16 1.26667 0 0.14 1.26667 0 0.12 1.26667 0 0.1 1.26667 0 0.08 1.26667 0 0.06 1.26667 0 0.04 1.26667 0 0.02 1.26667 0 -6.93889e-18 1.26667 0 -0.02 1.26667 0 -0.04 1.26667 0 -0.06 1.26667 0 -0.08 1.26667 0 -0.1 1.26667 0 -0.12 1.26667 0 -0.14 1.26667 0 -0.16 1.26667 0 -0.18 1.26667 0 -0.2 1.26667 0 -0.22 1.26667 0 -0.24 1.26667 0 -0.26 1.26667 0 -0.28 1.26667 0 -0.3 1.26667 0 -0.32 1.26667 0 -0.34 1.26667 0 -0.36 1.26667 0 -0.38 1.26667 0 -0.4 1.26667 0 -0.42 1.26667 0 -0.44 1.26667 0 -0.46 1.26667 0 -0.48 1.26667 0 -0.5 1.26667 0 -0.52 1.26667 0 -0.54 1.26667 0 -0.56 1.26667 0 -0.58 1.26667 0 -0.6 1.26667 0 -0.62 1.26667 0 -0.64 1.26667 0 -0.66 1.26667 0 -0.68 1.26667 0 -0.7 1.26667 0 -0.72 1.26667 0 -0.74 1.26667 0 -0.76 1.26667 0 -0.78 1.26667 0 -0.8 1.26667 0 -0.82 1.26667 0 -0.84 1.26667 0 -0.86 1.26667 0 -0.88 1.26667 0 -0.9 1.26667 0 -0.92 1.26667 0 -0.94 1.26667 0 -0.96 1.26667 0 -0.98 1.26667 0 0.98 1.33333 0 0.96 1.33333 0 0.94 1.33333 0 0.92 1.33333 0 0.9 1.33333 0 0.88 1.33333 0 0.86 1.33333 0 0.84 1.33333 0 0.82 1.33333 0 0.8 1.33333 0 0.78 1.33333 0 0.76 1.33333 0 0.74 1.33333 0 0.72 1.33333 0 0.7 1.33333 0 0.68 1.33333 0 0.66 1.33333 0 0.64 1.33333 0 0.62 1.33333 0 0.6 1.33333 0 0.58 1.33333 0 0.56 1.33333 0 0.54 1.33333 0 0.52 1.33333 0 0.5 1.33333 0 0.48 1.33333 0 0.46 1.33333 0 0.44 1.33333 0 0.42 1.33333 0 0.4 1.33333 0 0.38 1.33333 0 0.36 1.33333 0 0.34 1.33333 0 0.32 1.33333 0 0.3 1.33333 0 0.28 1.33333 0 0.26 1.33333 0 0.24 1.33333 0 0.22 1.33333 0 0.2 1.33333 0 0.18 1.33333 0 0.16 1.33333 0 0.14 1.33333 0 0.12 1.33333 0 0.1 1.33333 0 0.08 1.33333 0 0.06 1.33333 0 0.04 1.33333 0 0.02 1.33333 0 -6.93889e-18 1.33333 0 -0.02 1.33333 0 -0.04 1.33333 0 -0.06 1.33333 0 -0.08 1.33333 0 -0.1 1.33333 0 -0.12 1.33333 0 -0.14 1.33333 0 -0.16 1.33333 0 -0.18 1.33333 0 -0.2 1.33333 0 -0.22 1.33333 0 -0.24 1.33333 0 -0.26 1.33333 0 -0.28 1.33333 0 -0.3 1.33333 0 -0.32 1.33333 0 -0.34 1.33333 0 -0.36 1.33333 0 -0.38 1.33333 0 -0.4 1.33333 0 -0.42 1.33333 0 -0.44 1.33333 0 -0.46 1.33333 0 -0.48 1.33333 0 -0.5 1.33333 0 -0.52 1.33333 0 -0.54 1.33333 0 -0.56 1.33333 0 -0.58 1.33333 0 -0.6 1.33333 0 -0.62 1.33333 0 -0.64 1.33333 0 -0.66 1.33333 0 -0.68 1.33333 0 -0.7 1.33333 0 -0.72 1.33333 0 -0.74 1.33333 0 -0.76 1.33333 0 -0.78 1.33333 0 -0.8 1.33333 0 -0.82 1.33333 0 -0.84 1.33333 0 -0.86 1.33333 0 -0.88 1.33333 0 -0.9 1.33333 0 -0.92 1.33333 0 -0.94 1.33333 0 -0.96 1.33333 0 -0.98 1.33333 0 0.98 1.4 0 0.96 1.4 0 0.94 1.4 0 0.92 1.4 0 0.9 1.4 0 0.88 1.4 0 0.86 1.4 0 0.84 1.4 0 0.82 1.4 0 0.8 1.4 0 0.78 1.4 0 0.76 1.4 0 0.74 1.4 0 0.72 1.4 0 0.7 1.4 0 0.68 1.4 0 0.66 1.4 0 0.64 1.4 0 0.62 1.4 0 0.6 1.4 0 0.58 1.4 0 0.56 1.4 0 0.54 1.4 0 0.52 1.4 0 0.5 1.4 0 0.48 1.4 0 0.46 1.4 0 0.44 1.4 0 0.42 1.4 0 0.4 1.4 0 0.38 1.4 0 0.36 1.4 0 0.34 1.4 0 0.32 1.4 0 0.3 1.4 0 0.28 1.4 0 0.26 1.4 0 0.24 1.4 0 0.22 1.4 0 0.2 1.4 0 0.18 1.4 0 0.16 1.4 0 0.14 1.4 0 0.12 1.4 0 0.1 1.4 0 0.08 1.4 0 0.06 1.4 0 0.04 1.4 0 0.02 1.4 0 -6.93889e-18 1.4 0 -0.02 1.4 0 -0.04 1.4 0 -0.06 1.4 0 -0.08 1.4 0 -0.1 1.4 0 -0.12 1.4 0 -0.14 1.4 0 -0.16 1.4 0 -0.18 1.4 0 -0.2 1.4 0 -0.22 1.4 0 -0.24 1.4 0 -0.26 1.4 0 -0.28 1.4 0 -0.3 1.4 0 -0.32 1.4 0 -0.34 1.4 0 -0.36 1.4 0 -0.38 1.4 0 -0.4 1.4 0 -0.42 1.4 0 -0.44 1.4 0 -0.46 1.4 0 -0.48 1.4 0 -0.5 1.4 0 -0.52 1.4 0 -0.54 1.4 0 -0.56 1.4 0 -0.58 1.4 0 -0.6 1.4 0 -0.62 1.4 0 -0.64 1.4 0 -0.66 1.4 0 -0.68 1.4 0 -0.7 1.4 0 -0.72 1.4 0 -0.74 1.4 0 -0.76 1.4 0 -0.78 1.4 0 -0.8 1.4 0 -0.82 1.4 0 -0.84 1.4 0 -0.86 1.4 0 -0.88 1.4 0 -0.9 1.4 0 -0.92 1.4 0 -0.94 1.4 0 -0.96 1.4 0 -0.98 1.4 0 0.98 1.46667 0 0.96 1.46667 0 0.94 1.46667 0 0.92 1.46667 0 0.9 1.46667 0 0.88 1.46667 0 0.86 1.46667 0 0.84 1.46667 0 0.82 1.46667 0 0.8 1.46667 0 0.78 1.46667 0 0.76 1.46667 0 0.74 1.46667 0 0.72 1.46667 0 0.7 1.46667 0 0.68 1.46667 0 0.66 1.46667 0 0.64 1.46667 0 0.62 1.46667 0 0.6 1.46667 0 0.58 1.46667 0 0.56 1.46667 0 0.54 1.46667 0 0.52 1.46667 0 0.5 1.46667 0 0.48 1.46667 0 0.46 1.46667 0 0.44 1.46667 0 0.42 1.46667 0 0.4 1.46667 0 0.38 1.46667 0 0.36 1.46667 0 0.34 1.46667 0 0.32 1.46667 0 0.3 1.46667 0 0.28 1.46667 0 0.26 1.46667 0 0.24 1.46667 0 0.22 1.46667 0 0.2 1.46667 0 0.18 1.46667 0 0.16 1.46667 0 0.14 1.46667 0 0.12 1.46667 0 0.1 1.46667 0 0.08 1.46667 0 0.06 1.46667 0 0.04 1.46667 0 0.02 1.46667 0 -1.38778e-17 1.46667 0 -0.02 1.46667 0 -0.04 1.46667 0 -0.06 1.46667 0 -0.08 1.46667 0 -0.1 1.46667 0 -0.12 1.46667 0 -0.14 1.46667 0 -0.16 1.46667 0 -0.18 1.46667 0 -0.2 1.46667 0 -0.22 1.46667 0 -0.24 1.46667 0 -0.26 1.46667 0 -0.28 1.46667 0 -0.3 1.46667 0 -0.32 1.46667 0 -0.34 1.46667 0 -0.36 1.46667 0 -0.38 1.46667 0 -0.4 1.46667 0 -0.42 1.46667 0 -0.44 1.46667 0 -0.46 1.46667 0 -0.48 1.46667 0 -0.5 1.46667 0 -0.52 1.46667 0 -0.54 1.46667 0 -0.56 1.46667 0 -0.58 1.46667 0 -0.6 1.46667 0 -0.62 1.46667 0 -0.64 1.46667 0 -0.66 1.46667 0 -0.68 1.46667 0 -0.7 1.46667 0 -0.72 1.46667 0 -0.74 1.46667 0 -0.76 1.46667 0 -0.78 1.46667 0 -0.8 1.46667 0 -0.82 1.46667 0 -0.84 1.46667 0 -0.86 1.46667 0 -0.88 1.46667 0 -0.9 1.46667 0 -0.92 1.46667 0 -0.94 1.46667 0 -0.96 1.46667 0 -0.98 1.46667 0 0.98 1.53333 0 0.96 1.53333 0 0.94 1.53333 0 0.92 1.53333 0 0.9 1.53333 0 0.88 1.53333 0 0.86 1.53333 0 0.84 1.53333 0 0.82 1.53333 0 0.8 1.53333 0 0.78 1.53333 0 0.76 1.53333 0 0.74 1.53333 0 0.72 1.53333 0 0.7 1.53333 0 0.68 1.53333 0 0.66 1.53333 0 0.64 1.53333 0 0.62 1.53333 0 0.6 1.53333 0 0.58 1.53333 0 0.56 1.53333 0 0.54 1.53333 0 0.52 1.53333 0 0.5 1.53333 0 0.48 1.53333 0 0.46 1.53333 0 0.44 1.53333 0 0.42 1.53333 0 0.4 1.53333 0 0.38 1.53333 0 0.36 1.53333 0 0.34 1.53333 0 0.32 1.53333 0 0.3 1.53333 0 0.28 1.53333 0 0.26 1.53333 0 0.24 1.53333 0 0.22 1.53333 0 0.2 1.53333 0 0.18 1.53333 0 0.16 1.53333 0 0.14 1.53333 0 0.12 1.53333 0 0.1 1.53333 0 0.08 1.53333 0 0.06 1.53333 0 0.04 1.53333 0 0.02 1.53333 0 -1.38778e-17 1.53333 0 -0.02 1.53333 0 -0.04 1.53333 0 -0.06 1.53333 0 -0.08 1.53333 0 -0.1 1.53333 0 -0.12 1.53333 0 -0.14 1.53333 0 -0.16 1.53333 0 -0.18 1.53333 0 -0.2 1.53333 0 -0.22 1.53333 0 -0.24 1.53333 0 -0.26 1.53333 0 -0.28 1.53333 0 -0.3 1.53333 0 -0.32 1.53333 0 -0.34 1.53333 0 -0.36 1.53333 0 -0.38 1.53333 0 -0.4 1.53333 0 -0.42 1.53333 0 -0.44 1.53333 0 -0.46 1.53333 0 -0.48 1.53333 0 -0.5 1.53333 0 -0.52 1.53333 0 -0.54 1.53333 0 -0.56 1.53333 0 -0.58 1.53333 0 -0.6 1.53333 0 -0.62 1.53333 0 -0.64 1.53333 0 -0.66 1.53333 0 -0.68 1.53333 0 -0.7 1.53333 0 -0.72 1.53333 0 -0.74 1.53333 0 -0.76 1.53333 0 -0.78 1.53333 0 -0.8 1.53333 0 -0.82 1.53333 0 -0.84 1.53333 0 -0.86 1.53333 0 -0.88 1.53333 0 -0.9 1.53333 0 -0.92 1.53333 0 -0.94 1.53333 0 -0.96 1.53333 0 -0.98 1.53333 0 0.98 1.6 0 0.96 1.6 0 0.94 1.6 0 0.92 1.6 0 0.9 1.6 0 0.88 1.6 0 0.86 1.6 0 0.84 1.6 0 0.82 1.6 0 0.8 1.6 0 0.78 1.6 0 0.76 1.6 0 0.74 1.6 0 0.72 1.6 0 0.7 1.6 0 0.68 1.6 0 0.66 1.6 0 0.64 1.6 0 0.62 1.6 0 0.6 1.6 0 0.58 1.6 0 0.56 1.6 0 0.54 1.6 0 0.52 1.6 0 0.5 1.6 0 0.48 1.6 0 0.46 1.6 0 0.44 1.6 0 0.42 1.6 0 0.4 1.6 0 0.38 1.6 0 0.36 1.6 0 0.34 1.6 0 0.32 1.6 0 0.3 1.6 0 0.28 1.6 0 0.26 1.6 0 0.24 1.6 0 0.22 1.6 0 0.2 1.6 0 0.18 1.6 0 0.16 1.6 0 0.14 1.6 0 0.12 1.6 0 0.1 1.6 0 0.08 1.6 0 0.06 1.6 0 0.04 1.6 0 0.02 1.6 0 -1.38778e-17 1.6 0 -0.02 1.6 0 -0.04 1.6 0 -0.06 1.6 0 -0.08 1.6 0 -0.1 1.6 0 -0.12 1.6 0 -0.14 1.6 0 -0.16 1.6 0 -0.18 1.6 0 -0.2 1.6 0 -0.22 1.6 0 -0.24 1.6 0 -0.26 1.6 0 -0.28 1.6 0 -0.3 1.6 0 -0.32 1.6 0 -0.34 1.6 0 -0.36 1.6 0 -0.38 1.6 0 -0.4 1.6 0 -0.42 1.6 0 -0.44 1.6 0 -0.46 1.6 0 -0.48 1.6 0 -0.5 1.6 0 -0.52 1.6 0 -0.54 1.6 0 -0.56 1.6 0 -0.58 1.6 0 -0.6 1.6 0 -0.62 1.6 0 -0.64 1.6 0 -0.66 1.6 0 -0.68 1.6 0 -0.7 1.6 0 -0.72 1.6 0 -0.74 1.6 0 -0.76 1.6 0 -0.78 1.6 0 -0.8 1.6 0 -0.82 1.6 0 -0.84 1.6 0 -0.86 1.6 0 -0.88 1.6 0 -0.9 1.6 0 -0.92 1.6 0 -0.94 1.6 0 -0.96 1.6 0 -0.98 1.6 0 0.98 1.66667 0 0.96 1.66667 0 0.94 1.66667 0 0.92 1.66667 0 0.9 1.66667 0 0.88 1.66667 0 0.86 1.66667 0 0.84 1.66667 0 0.82 1.66667 0 0.8 1.66667 0 0.78 1.66667 0 0.76 1.66667 0 0.74 1.66667 0 0.72 1.66667 0 0.7 1.66667 0 0.68 1.66667 0 0.66 1.66667 0 0.64 1.66667 0 0.62 1.66667 0 0.6 1.66667 0 0.58 1.66667 0 0.56 1.66667 0 0.54 1.66667 0 0.52 1.66667 0 0.5 1.66667 0 0.48 1.66667 0 0.46 1.66667 0 0.44 1.66667 0 0.42 1.66667 0 0.4 1.66667 0 0.38 1.66667 0 0.36 1.66667 0 0.34 1.66667 0 0.32 1.66667 0 0.3 1.66667 0 0.28 1.66667 0 0.26 1.66667 0 0.24 1.66667 0 0.22 1.66667 0 0.2 1.66667 0 0.18 1.66667 0 0.16 1.66667 0 0.14 1.66667 0 0.12 1.66667 0 0.1 1.66667 0 0.08 1.66667 0 0.06 1.66667 0 0.04 1.66667 0 0.02 1.66667 0 -1.38778e-17 1.66667 0 -0.02 1.66667 0 -0.04 1.66667 0 -0.06 1.66667 0 -0.08 1.66667 0 -0.1 1.66667 0 -0.12 1.66667 0 -0.14 1.66667 0 -0.16 1.66667 0 -0.18 1.66667 0 -0.2 1.66667 0 -0.22 1.66667 0 -0.24 1.66667 0 -0.26 1.66667 0 -0.28 1.66667 0 -0.3 1.66667 0 -0.32 1.66667 0 -0.34 1.66667 0 -0.36 1.66667 0 -0.38 1.66667 0 -0.4 1.66667 0 -0.42 1.66667 0 -0.44 1.66667 0 -0.46 1.66667 0 -0.48 1.66667 0 -0.5 1.66667 0 -0.52 1.66667 0 -0.54 1.66667 0 -0.56 1.66667 0 -0.58 1.66667 0 -0.6 1.66667 0 -0.62 1.66667 0 -0.64 1.66667 0 -0.66 1.66667 0 -0.68 1.66667 0 -0.7 1.66667 0 -0.72 1.66667 0 -0.74 1.66667 0 -0.76 1.66667 0 -0.78 1.66667 0 -0.8 1.66667 0 -0.82 1.66667 0 -0.84 1.66667 0 -0.86 1.66667 0 -0.88 1.66667 0 -0.9 1.66667 0 -0.92 1.66667 0 -0.94 1.66667 0 -0.96 1.66667 0 -0.98 1.66667 0 0.98 1.73333 0 0.96 1.73333 0 0.94 1.73333 0 0.92 1.73333 0 0.9 1.73333 0 0.88 1.73333 0 0.86 1.73333 0 0.84 1.73333 0 0.82 1.73333 0 0.8 1.73333 0 0.78 1.73333 0 0.76 1.73333 0 0.74 1.73333 0 0.72 1.73333 0 0.7 1.73333 0 0.68 1.73333 0 0.66 1.73333 0 0.64 1.73333 0 0.62 1.73333 0 0.6 1.73333 0 0.58 1.73333 0 0.56 1.73333 0 0.54 1.73333 0 0.52 1.73333 0 0.5 1.73333 0 0.48 1.73333 0 0.46 1.73333 0 0.44 1.73333 0 0.42 1.73333 0 0.4 1.73333 0 0.38 1.73333 0 0.36 1.73333 0 0.34 1.73333 0 0.32 1.73333 0 0.3 1.73333 0 0.28 1.73333 0 0.26 1.73333 0 0.24 1.73333 0 0.22 1.73333 0 0.2 1.73333 0 0.18 1.73333 0 0.16 1.73333 0 0.14 1.73333 0 0.12 1.73333 0 0.1 1.73333 0 0.08 1.73333 0 0.06 1.73333 0 0.04 1.73333 0 0.02 1.73333 0 -1.38778e-17 1.73333 0 -0.02 1.73333 0 -0.04 1.73333 0 -0.06 1.73333 0 -0.08 1.73333 0 -0.1 1.73333 0 -0.12 1.73333 0 -0.14 1.73333 0 -0.16 1.73333 0 -0.18 1.73333 0 -0.2 1.73333 0 -0.22 1.73333 0 -0.24 1.73333 0 -0.26 1.73333 0 -0.28 1.73333 0 -0.3 1.73333 0 -0.32 1.73333 0 -0.34 1.73333 0 -0.36 1.73333 0 -0.38 1.73333 0 -0.4 1.73333 0 -0.42 1.73333 0 -0.44 1.73333 0 -0.46 1.73333 0 -0.48 1.73333 0 -0.5 1.73333 0 -0.52 1.73333 0 -0.54 1.73333 0 -0.56 1.73333 0 -0.58 1.73333 0 -0.6 1.73333 0 -0.62 1.73333 0 -0.64 1.73333 0 -0.66 1.73333 0 -0.68 1.73333 0 -0.7 1.73333 0 -0.72 1.73333 0 -0.74 1.73333 0 -0.76 1.73333 0 -0.78 1.73333 0 -0.8 1.73333 0 -0.82 1.73333 0 -0.84 1.73333 0 -0.86 1.73333 0 -0.88 1.73333 0 -0.9 1.73333 0 -0.92 1.73333 0 -0.94 1.73333 0 -0.96 1.73333 0 -0.98 1.73333 0 0.98 1.8 0 0.96 1.8 0 0.94 1.8 0 0.92 1.8 0 0.9 1.8 0 0.88 1.8 0 0.86 1.8 0 0.84 1.8 0 0.82 1.8 0 0.8 1.8 0 0.78 1.8 0 0.76 1.8 0 0.74 1.8 0 0.72 1.8 0 0.7 1.8 0 0.68 1.8 0 0.66 1.8 0 0.64 1.8 0 0.62 1.8 0 0.6 1.8 0 0.58 1.8 0 0.56 1.8 0 0.54 1.8 0 0.52 1.8 0 0.5 1.8 0 0.48 1.8 0 0.46 1.8 0 0.44 1.8 0 0.42 1.8 0 0.4 1.8 0 0.38 1.8 0 0.36 1.8 0 0.34 1.8 0 0.32 1.8 0 0.3 1.8 0 0.28 1.8 0 0.26 1.8 0 0.24 1.8 0 0.22 1.8 0 0.2 1.8 0 0.18 1.8 0 0.16 1.8 0 0.14 1.8 0 0.12 1.8 0 0.1 1.8 0 0.08 1.8 0 0.06 1.8 0 0.04 1.8 0 0.02 1.8 0 -1.38778e-17 1.8 0 -0.02 1.8 0 -0.04 1.8 0 -0.06 1.8 0 -0.08 1.8 0 -0.1 1.8 0 -0.12 1.8 0 -0.14 1.8 0 -0.16 1.8 0 -0.18 1.8 0 -0.2 1.8 0 -0.22 1.8 0 -0.24 1.8 0 -0.26 1.8 0 -0.28 1.8 0 -0.3 1.8 0 -0.32 1.8 0 -0.34 1.8 0 -0.36 1.8 0 -0.38 1.8 0 -0.4 1.8 0 -0.42 1.8 0 -0.44 1.8 0 -0.46 1.8 0 -0.48 1.8 0 -0.5 1.8 0 -0.52 1.8 0 -0.54 1.8 0 -0.56 1.8 0 -0.58 1.8 0 -0.6 1.8 0 -0.62 1.8 0 -0.64 1.8 0 -0.66 1.8 0 -0.68 1.8 0 -0.7 1.8 0 -0.72 1.8 0 -0.74 1.8 0 -0.76 1.8 0 -0.78 1.8 0 -0.8 1.8 0 -0.82 1.8 0 -0.84 1.8 0 -0.86 1.8 0 -0.88 1.8 0 -0.9 1.8 0 -0.92 1.8 0 -0.94 1.8 0 -0.96 1.8 0 -0.98 1.8 0 0.98 1.86667 0 0.96 1.86667 0 0.94 1.86667 0 0.92 1.86667 0 0.9 1.86667 0 0.88 1.86667 0 0.86 1.86667 0 0.84 1.86667 0 0.82 1.86667 0 0.8 1.86667 0 0.78 1.86667 0 0.76 1.86667 0 0.74 1.86667 0 0.72 1.86667 0 0.7 1.86667 0 0.68 1.86667 0 0.66 1.86667 0 0.64 1.86667 0 0.62 1.86667 0 0.6 1.86667 0 0.58 1.86667 0 0.56 1.86667 0 0.54 1.86667 0 0.52 1.86667 0 0.5 1.86667 0 0.48 1.86667 0 0.46 1.86667 0 0.44 1.86667 0 0.42 1.86667 0 0.4 1.86667 0 0.38 1.86667 0 0.36 1.86667 0 0.34 1.86667 0 0.32 1.86667 0 0.3 1.86667 0 0.28 1.86667 0 0.26 1.86667 0 0.24 1.86667 0 0.22 1.86667 0 0.2 1.86667 0 0.18 1.86667 0 0.16 1.86667 0 0.14 1.86667 0 0.12 1.86667 0 0.1 1.86667 0 0.08 1.86667 0 0.06 1.86667 0 0.04 1.86667 0 0.02 1.86667 0 -2.77556e-17 1.86667 0 -0.02 1.86667 0 -0.04 1.86667 0 -0.06 1.86667 0 -0.08 1.86667 0 -0.1 1.86667 0 -0.12 1.86667 0 -0.14 1.86667 0 -0.16 1.86667 0 -0.18 1.86667 0 -0.2 1.86667 0 -0.22 1.86667 0 -0.24 1.86667 0 -0.26 1.86667 0 -0.28 1.86667 0 -0.3 1.86667 0 -0.32 1.86667 0 -0.34 1.86667 0 -0.36 1.86667 0 -0.38 1.86667 0 -0.4 1.86667 0 -0.42 1.86667 0 -0.44 1.86667 0 -0.46 1.86667 0 -0.48 1.86667 0 -0.5 1.86667 0 -0.52 1.86667 0 -0.54 1.86667 0 -0.56 1.86667 0 -0.58 1.86667 0 -0.6 1.86667 0 -0.62 1.86667 0 -0.64 1.86667 0 -0.66 1.86667 0 -0.68 1.86667 0 -0.7 1.86667 0 -0.72 1.86667 0 -0.74 1.86667 0 -0.76 1.86667 0 -0.78 1.86667 0 -0.8 1.86667 0 -0.82 1.86667 0 -0.84 1.86667 0 -0.86 1.86667 0 -0.88 1.86667 0 -0.9 1.86667 0 -0.92 1.86667 0 -0.94 1.86667 0 -0.96 1.86667 0 -0.98 1.86667 0 0.98 1.93333 0 0.96 1.93333 0 0.94 1.93333 0 0.92 1.93333 0 0.9 1.93333 0 0.88 1.93333 0 0.86 1.93333 0 0.84 1.93333 0 0.82 1.93333 0 0.8 1.93333 0 0.78 1.93333 0 0.76 1.93333 0 0.74 1.93333 0 0.72 1.93333 0 0.7 1.93333 0 0.68 1.93333 0 0.66 1.93333 0 0.64 1.93333 0 0.62 1.93333 0 0.6 1.93333 0 0.58 1.93333 0 0.56 1.93333 0 0.54 1.93333 0 0.52 1.93333 0 0.5 1.93333 0 0.48 1.93333 0 0.46 1.93333 0 0.44 1.93333 0 0.42 1.93333 0 0.4 1.93333 0 0.38 1.93333 0 0.36 1.93333 0 0.34 1.93333 0 0.32 1.93333 0 0.3 1.93333 0 0.28 1.93333 0 0.26 1.93333 0 0.24 1.93333 0 0.22 1.93333 0 0.2 1.93333 0 0.18 1.93333 0 0.16 1.93333 0 0.14 1.93333 0 0.12 1.93333 0 0.1 1.93333 0 0.08 1.93333 0 0.06 1.93333 0 0.04 1.93333 0 0.02 1.93333 0 -2.77556e-17 1.93333 0 -0.02 1.93333 0 -0.04 1.93333 0 -0.06 1.93333 0 -0.08 1.93333 0 -0.1 1.93333 0 -0.12 1.93333 0 -0.14 1.93333 0 -0.16 1.93333 0 -0.18 1.93333 0 -0.2 1.93333 0 -0.22 1.93333 0 -0.24 1.93333 0 -0.26 1.93333 0 -0.28 1.93333 0 -0.3 1.93333 0 -0.32 1.93333 0 -0.34 1.93333 0 -0.36 1.93333 0 -0.38 1.93333 0 -0.4 1.93333 0 -0.42 1.93333 0 -0.44 1.93333 0 -0.46 1.93333 0 -0.48 1.93333 0 -0.5 1.93333 0 -0.52 1.93333 0 -0.54 1.93333 0 -0.56 1.93333 0 -0.58 1.93333 0 -0.6 1.93333 0 -0.62 1.93333 0 -0.64 1.93333 0 -0.66 1.93333 0 -0.68 1.93333 0 -0.7 1.93333 0 -0.72 1.93333 0 -0.74 1.93333 0 -0.76 1.93333 0 -0.78 1.93333 0 -0.8 1.93333 0 -0.82 1.93333 0 -0.84 1.93333 0 -0.86 1.93333 0 -0.88 1.93333 0 -0.9 1.93333 0 -0.92 1.93333 0 -0.94 1.93333 0 -0.96 1.93333 0 -0.98 1.93333 0 0.98 2 0 0.96 2 0 0.94 2 0 0.92 2 0 0.9 2 0 0.88 2 0 0.86 2 0 0.84 2 0 0.82 2 0 0.8 2 0 0.78 2 0 0.76 2 0 0.74 2 0 0.72 2 0 0.7 2 0 0.68 2 0 0.66 2 0 0.64 2 0 0.62 2 0 0.6 2 0 0.58 2 0 0.56 2 0 0.54 2 0 0.52 2 0 0.5 2 0 0.48 2 0 0.46 2 0 0.44 2 0 0.42 2 0 0.4 2 0 0.38 2 0 0.36 2 0 0.34 2 0 0.32 2 0 0.3 2 0 0.28 2 0 0.26 2 0 0.24 2 0 0.22 2 0 0.2 2 0 0.18 2 0 0.16 2 0 0.14 2 0 0.12 2 0 0.1 2 0 0.08 2 0 0.06 2 0 0.04 2 0 0.02 2 0 -2.77556e-17 2 0 -0.02 2 0 -0.04 2 0 -0.06 2 0 -0.08 2 0 -0.1 2 0 -0.12 2 0 -0.14 2 0 -0.16 2 0 -0.18 2 0 -0.2 2 0 -0.22 2 0 -0.24 2 0 -0.26 2 0 -0.28 2 0 -0.3 2 0 -0.32 2 0 -0.34 2 0 -0.36 2 0 -0.38 2 0 -0.4 2 0 -0.42 2 0 -0.44 2 0 -0.46 2 0 -0.48 2 0 -0.5 2 0 -0.52 2 0 -0.54 2 0 -0.56 2 0 -0.58 2 0 -0.6 2 0 -0.62 2 0 -0.64 2 0 -0.66 2 0 -0.68 2 0 -0.7 2 0 -0.72 2 0 -0.74 2 0 -0.76 2 0 -0.78 2 0 -0.8 2 0 -0.82 2 0 -0.84 2 0 -0.86 2 0 -0.88 2 0 -0.9 2 0 -0.92 2 0 -0.94 2 0 -0.96 2 0 -0.98 2 0 0.98 2.06667 0 0.96 2.06667 0 0.94 2.06667 0 0.92 2.06667 0 0.9 2.06667 0 0.88 2.06667 0 0.86 2.06667 0 0.84 2.06667 0 0.82 2.06667 0 0.8 2.06667 0 0.78 2.06667 0 0.76 2.06667 0 0.74 2.06667 0 0.72 2.06667 0 0.7 2.06667 0 0.68 2.06667 0 0.66 2.06667 0 0.64 2.06667 0 0.62 2.06667 0 0.6 2.06667 0 0.58 2.06667 0 0.56 2.06667 0 0.54 2.06667 0 0.52 2.06667 0 0.5 2.06667 0 0.48 2.06667 0 0.46 2.06667 0 0.44 2.06667 0 0.42 2.06667 0 0.4 2.06667 0 0.38 2.06667 0 0.36 2.06667 0 0.34 2.06667 0 0.32 2.06667 0 0.3 2.06667 0 0.28 2.06667 0 0.26 2.06667 0 0.24 2.06667 0 0.22 2.06667 0 0.2 2.06667 0 0.18 2.06667 0 0.16 2.06667 0 0.14 2.06667 0 0.12 2.06667 0 0.1 2.06667 0 0.08 2.06667 0 0.06 2.06667 0 0.04 2.06667 0 0.02 2.06667 0 -2.77556e-17 2.06667 0 -0.02 2.06667 0 -0.04 2.06667 0 -0.06 2.06667 0 -0.08 2.06667 0 -0.1 2.06667 0 -0.12 2.06667 0 -0.14 2.06667 0 -0.16 2.06667 0 -0.18 2.06667 0 -0.2 2.06667 0 -0.22 2.06667 0 -0.24 2.06667 0 -0.26 2.06667 0 -0.28 2.06667 0 -0.3 2.06667 0 -0.32 2.06667 0 -0.34 2.06667 0 -0.36 2.06667 0 -0.38 2.06667 0 -0.4 2.06667 0 -0.42 2.06667 0 -0.44 2.06667 0 -0.46 2.06667 0 -0.48 2.06667 0 -0.5 2.06667 0 -0.52 2.06667 0 -0.54 2.06667 0 -0.56 2.06667 0 -0.58 2.06667 0 -0.6 2.06667 0 -0.62 2.06667 0 -0.64 2.06667 0 -0.66 2.06667 0 -0.68 2.06667 0 -0.7 2.06667 0 -0.72 2.06667 0 -0.74 2.06667 0 -0.76 2.06667 0 -0.78 2.06667 0 -0.8 2.06667 0 -0.82 2.06667 0 -0.84 2.06667 0 -0.86 2.06667 0 -0.88 2.06667 0 -0.9 2.06667 0 -0.92 2.06667 0 -0.94 2.06667 0 -0.96 2.06667 0 -0.98 2.06667 0 0.98 2.13333 0 0.96 2.13333 0 0.94 2.13333 0 0.92 2.13333 0 0.9 2.13333 0 0.88 2.13333 0 0.86 2.13333 0 0.84 2.13333 0 0.82 2.13333 0 0.8 2.13333 0 0.78 2.13333 0 0.76 2.13333 0 0.74 2.13333 0 0.72 2.13333 0 0.7 2.13333 0 0.68 2.13333 0 0.66 2.13333 0 0.64 2.13333 0 0.62 2.13333 0 0.6 2.13333 0 0.58 2.13333 0 0.56 2.13333 0 0.54 2.13333 0 0.52 2.13333 0 0.5 2.13333 0 0.48 2.13333 0 0.46 2.13333 0 0.44 2.13333 0 0.42 2.13333 0 0.4 2.13333 0 0.38 2.13333 0 0.36 2.13333 0 0.34 2.13333 0 0.32 2.13333 0 0.3 2.13333 0 0.28 2.13333 0 0.26 2.13333 0 0.24 2.13333 0 0.22 2.13333 0 0.2 2.13333 0 0.18 2.13333 0 0.16 2.13333 0 0.14 2.13333 0 0.12 2.13333 0 0.1 2.13333 0 0.08 2.13333 0 0.06 2.13333 0 0.04 2.13333 0 0.02 2.13333 0 -2.77556e-17 2.13333 0 -0.02 2.13333 0 -0.04 2.13333 0 -0.06 2.13333 0 -0.08 2.13333 0 -0.1 2.13333 0 -0.12 2.13333 0 -0.14 2.13333 0 -0.16 2.13333 0 -0.18 2.13333 0 -0.2 2.13333 0 -0.22 2.13333 0 -0.24 2.13333 0 -0.26 2.13333 0 -0.28 2.13333 0 -0.3 2.13333 0 -0.32 2.13333 0 -0.34 2.13333 0 -0.36 2.13333 0 -0.38 2.13333 0 -0.4 2.13333 0 -0.42 2.13333 0 -0.44 2.13333 0 -0.46 2.13333 0 -0.48 2.13333 0 -0.5 2.13333 0 -0.52 2.13333 0 -0.54 2.13333 0 -0.56 2.13333 0 -0.58 2.13333 0 -0.6 2.13333 0 -0.62 2.13333 0 -0.64 2.13333 0 -0.66 2.13333 0 -0.68 2.13333 0 -0.7 2.13333 0 -0.72 2.13333 0 -0.74 2.13333 0 -0.76 2.13333 0 -0.78 2.13333 0 -0.8 2.13333 0 -0.82 2.13333 0 -0.84 2.13333 0 -0.86 2.13333 0 -0.88 2.13333 0 -0.9 2.13333 0 -0.92 2.13333 0 -0.94 2.13333 0 -0.96 2.13333 0 -0.98 2.13333 0 0.98 2.2 0 0.96 2.2 0 0.94 2.2 0 0.92 2.2 0 0.9 2.2 0 0.88 2.2 0 0.86 2.2 0 0.84 2.2 0 0.82 2.2 0 0.8 2.2 0 0.78 2.2 0 0.76 2.2 0 0.74 2.2 0 0.72 2.2 0 0.7 2.2 0 0.68 2.2 0 0.66 2.2 0 0.64 2.2 0 0.62 2.2 0 0.6 2.2 0 0.58 2.2 0 0.56 2.2 0 0.54 2.2 0 0.52 2.2 0 0.5 2.2 0 0.48 2.2 0 0.46 2.2 0 0.44 2.2 0 0.42 2.2 0 0.4 2.2 0 0.38 2.2 0 0.36 2.2 0 0.34 2.2 0 0.32 2.2 0 0.3 2.2 0 0.28 2.2 0 0.26 2.2 0 0.24 2.2 0 0.22 2.2 0 0.2 2.2 0 0.18 2.2 0 0.16 2.2 0 0.14 2.2 0 0.12 2.2 0 0.1 2.2 0 0.08 2.2 0 0.06 2.2 0 0.04 2.2 0 0.02 2.2 0 -2.77556e-17 2.2 0 -0.02 2.2 0 -0.04 2.2 0 -0.06 2.2 0 -0.08 2.2 0 -0.1 2.2 0 -0.12 2.2 0 -0.14 2.2 0 -0.16 2.2 0 -0.18 2.2 0 -0.2 2.2 0 -0.22 2.2 0 -0.24 2.2 0 -0.26 2.2 0 -0.28 2.2 0 -0.3 2.2 0 -0.32 2.2 0 -0.34 2.2 0 -0.36 2.2 0 -0.38 2.2 0 -0.4 2.2 0 -0.42 2.2 0 -0.44 2.2 0 -0.46 2.2 0 -0.48 2.2 0 -0.5 2.2 0 -0.52 2.2 0 -0.54 2.2 0 -0.56 2.2 0 -0.58 2.2 0 -0.6 2.2 0 -0.62 2.2 0 -0.64 2.2 0 -0.66 2.2 0 -0.68 2.2 0 -0.7 2.2 0 -0.72 2.2 0 -0.74 2.2 0 -0.76 2.2 0 -0.78 2.2 0 -0.8 2.2 0 -0.82 2.2 0 -0.84 2.2 0 -0.86 2.2 0 -0.88 2.2 0 -0.9 2.2 0 -0.92 2.2 0 -0.94 2.2 0 -0.96 2.2 0 -0.98 2.2 0 0.98 2.26667 0 0.96 2.26667 0 0.94 2.26667 0 0.92 2.26667 0 0.9 2.26667 0 0.88 2.26667 0 0.86 2.26667 0 0.84 2.26667 0 0.82 2.26667 0 0.8 2.26667 0 0.78 2.26667 0 0.76 2.26667 0 0.74 2.26667 0 0.72 2.26667 0 0.7 2.26667 0 0.68 2.26667 0 0.66 2.26667 0 0.64 2.26667 0 0.62 2.26667 0 0.6 2.26667 0 0.58 2.26667 0 0.56 2.26667 0 0.54 2.26667 0 0.52 2.26667 0 0.5 2.26667 0 0.48 2.26667 0 0.46 2.26667 0 0.44 2.26667 0 0.42 2.26667 0 0.4 2.26667 0 0.38 2.26667 0 0.36 2.26667 0 0.34 2.26667 0 0.32 2.26667 0 0.3 2.26667 0 0.28 2.26667 0 0.26 2.26667 0 0.24 2.26667 0 0.22 2.26667 0 0.2 2.26667 0 0.18 2.26667 0 0.16 2.26667 0 0.14 2.26667 0 0.12 2.26667 0 0.1 2.26667 0 0.08 2.26667 0 0.06 2.26667 0 0.04 2.26667 0 0.02 2.26667 0 -2.77556e-17 2.26667 0 -0.02 2.26667 0 -0.04 2.26667 0 -0.06 2.26667 0 -0.08 2.26667 0 -0.1 2.26667 0 -0.12 2.26667 0 -0.14 2.26667 0 -0.16 2.26667 0 -0.18 2.26667 0 -0.2 2.26667 0 -0.22 2.26667 0 -0.24 2.26667 0 -0.26 2.26667 0 -0.28 2.26667 0 -0.3 2.26667 0 -0.32 2.26667 0 -0.34 2.26667 0 -0.36 2.26667 0 -0.38 2.26667 0 -0.4 2.26667 0 -0.42 2.26667 0 -0.44 2.26667 0 -0.46 2.26667 0 -0.48 2.26667 0 -0.5 2.26667 0 -0.52 2.26667 0 -0.54 2.26667 0 -0.56 2.26667 0 -0.58 2.26667 0 -0.6 2.26667 0 -0.62 2.26667 0 -0.64 2.26667 0 -0.66 2.26667 0 -0.68 2.26667 0 -0.7 2.26667 0 -0.72 2.26667 0 -0.74 2.26667 0 -0.76 2.26667 0 -0.78 2.26667 0 -0.8 2.26667 0 -0.82 2.26667 0 -0.84 2.26667 0 -0.86 2.26667 0 -0.88 2.26667 0 -0.9 2.26667 0 -0.92 2.26667 0 -0.94 2.26667 0 -0.96 2.26667 0 -0.98 2.26667 0 0.98 2.33333 0 0.96 2.33333 0 0.94 2.33333 0 0.92 2.33333 0 0.9 2.33333 0 0.88 2.33333 0 0.86 2.33333 0 0.84 2.33333 0 0.82 2.33333 0 0.8 2.33333 0 0.78 2.33333 0 0.76 2.33333 0 0.74 2.33333 0 0.72 2.33333 0 0.7 2.33333 0 0.68 2.33333 0 0.66 2.33333 0 0.64 2.33333 0 0.62 2.33333 0 0.6 2.33333 0 0.58 2.33333 0 0.56 2.33333 0 0.54 2.33333 0 0.52 2.33333 0 0.5 2.33333 0 0.48 2.33333 0 0.46 2.33333 0 0.44 2.33333 0 0.42 2.33333 0 0.4 2.33333 0 0.38 2.33333 0 0.36 2.33333 0 0.34 2.33333 0 0.32 2.33333 0 0.3 2.33333 0 0.28 2.33333 0 0.26 2.33333 0 0.24 2.33333 0 0.22 2.33333 0 0.2 2.33333 0 0.18 2.33333 0 0.16 2.33333 0 0.14 2.33333 0 0.12 2.33333 0 0.1 2.33333 0 0.08 2.33333 0 0.06 2.33333 0 0.04 2.33333 0 0.02 2.33333 0 -2.77556e-17 2.33333 0 -0.02 2.33333 0 -0.04 2.33333 0 -0.06 2.33333 0 -0.08 2.33333 0 -0.1 2.33333 0 -0.12 2.33333 0 -0.14 2.33333 0 -0.16 2.33333 0 -0.18 2.33333 0 -0.2 2.33333 0 -0.22 2.33333 0 -0.24 2.33333 0 -0.26 2.33333 0 -0.28 2.33333 0 -0.3 2.33333 0 -0.32 2.33333 0 -0.34 2.33333 0 -0.36 2.33333 0 -0.38 2.33333 0 -0.4 2.33333 0 -0.42 2.33333 0 -0.44 2.33333 0 -0.46 2.33333 0 -0.48 2.33333 0 -0.5 2.33333 0 -0.52 2.33333 0 -0.54 2.33333 0 -0.56 2.33333 0 -0.58 2.33333 0 -0.6 2.33333 0 -0.62 2.33333 0 -0.64 2.33333 0 -0.66 2.33333 0 -0.68 2.33333 0 -0.7 2.33333 0 -0.72 2.33333 0 -0.74 2.33333 0 -0.76 2.33333 0 -0.78 2.33333 0 -0.8 2.33333 0 -0.82 2.33333 0 -0.84 2.33333 0 -0.86 2.33333 0 -0.88 2.33333 0 -0.9 2.33333 0 -0.92 2.33333 0 -0.94 2.33333 0 -0.96 2.33333 0 -0.98 2.33333 0 0.98 2.4 0 0.96 2.4 0 0.94 2.4 0 0.92 2.4 0 0.9 2.4 0 0.88 2.4 0 0.86 2.4 0 0.84 2.4 0 0.82 2.4 0 0.8 2.4 0 0.78 2.4 0 0.76 2.4 0 0.74 2.4 0 0.72 2.4 0 0.7 2.4 0 0.68 2.4 0 0.66 2.4 0 0.64 2.4 0 0.62 2.4 0 0.6 2.4 0 0.58 2.4 0 0.56 2.4 0 0.54 2.4 0 0.52 2.4 0 0.5 2.4 0 0.48 2.4 0 0.46 2.4 0 0.44 2.4 0 0.42 2.4 0 0.4 2.4 0 0.38 2.4 0 0.36 2.4 0 0.34 2.4 0 0.32 2.4 0 0.3 2.4 0 0.28 2.4 0 0.26 2.4 0 0.24 2.4 0 0.22 2.4 0 0.2 2.4 0 0.18 2.4 0 0.16 2.4 0 0.14 2.4 0 0.12 2.4 0 0.1 2.4 0 0.08 2.4 0 0.06 2.4 0 0.04 2.4 0 0.02 2.4 0 -2.77556e-17 2.4 0 -0.02 2.4 0 -0.04 2.4 0 -0.06 2.4 0 -0.08 2.4 0 -0.1 2.4 0 -0.12 2.4 0 -0.14 2.4 0 -0.16 2.4 0 -0.18 2.4 0 -0.2 2.4 0 -0.22 2.4 0 -0.24 2.4 0 -0.26 2.4 0 -0.28 2.4 0 -0.3 2.4 0 -0.32 2.4 0 -0.34 2.4 0 -0.36 2.4 0 -0.38 2.4 0 -0.4 2.4 0 -0.42 2.4 0 -0.44 2.4 0 -0.46 2.4 0 -0.48 2.4 0 -0.5 2.4 0 -0.52 2.4 0 -0.54 2.4 0 -0.56 2.4 0 -0.58 2.4 0 -0.6 2.4 0 -0.62 2.4 0 -0.64 2.4 0 -0.66 2.4 0 -0.68 2.4 0 -0.7 2.4 0 -0.72 2.4 0 -0.74 2.4 0 -0.76 2.4 0 -0.78 2.4 0 -0.8 2.4 0 -0.82 2.4 0 -0.84 2.4 0 -0.86 2.4 0 -0.88 2.4 0 -0.9 2.4 0 -0.92 2.4 0 -0.94 2.4 0 -0.96 2.4 0 -0.98 2.4 0 0.98 2.46667 0 0.96 2.46667 0 0.94 2.46667 0 0.92 2.46667 0 0.9 2.46667 0 0.88 2.46667 0 0.86 2.46667 0 0.84 2.46667 0 0.82 2.46667 0 0.8 2.46667 0 0.78 2.46667 0 0.76 2.46667 0 0.74 2.46667 0 0.72 2.46667 0 0.7 2.46667 0 0.68 2.46667 0 0.66 2.46667 0 0.64 2.46667 0 0.62 2.46667 0 0.6 2.46667 0 0.58 2.46667 0 0.56 2.46667 0 0.54 2.46667 0 0.52 2.46667 0 0.5 2.46667 0 0.48 2.46667 0 0.46 2.46667 0 0.44 2.46667 0 0.42 2.46667 0 0.4 2.46667 0 0.38 2.46667 0 0.36 2.46667 0 0.34 2.46667 0 0.32 2.46667 0 0.3 2.46667 0 0.28 2.46667 0 0.26 2.46667 0 0.24 2.46667 0 0.22 2.46667 0 0.2 2.46667 0 0.18 2.46667 0 0.16 2.46667 0 0.14 2.46667 0 0.12 2.46667 0 0.1 2.46667 0 0.08 2.46667 0 0.06 2.46667 0 0.04 2.46667 0 0.02 2.46667 0 -2.77556e-17 2.46667 0 -0.02 2.46667 0 -0.04 2.46667 0 -0.06 2.46667 0 -0.08 2.46667 0 -0.1 2.46667 0 -0.12 2.46667 0 -0.14 2.46667 0 -0.16 2.46667 0 -0.18 2.46667 0 -0.2 2.46667 0 -0.22 2.46667 0 -0.24 2.46667 0 -0.26 2.46667 0 -0.28 2.46667 0 -0.3 2.46667 0 -0.32 2.46667 0 -0.34 2.46667 0 -0.36 2.46667 0 -0.38 2.46667 0 -0.4 2.46667 0 -0.42 2.46667 0 -0.44 2.46667 0 -0.46 2.46667 0 -0.48 2.46667 0 -0.5 2.46667 0 -0.52 2.46667 0 -0.54 2.46667 0 -0.56 2.46667 0 -0.58 2.46667 0 -0.6 2.46667 0 -0.62 2.46667 0 -0.64 2.46667 0 -0.66 2.46667 0 -0.68 2.46667 0 -0.7 2.46667 0 -0.72 2.46667 0 -0.74 2.46667 0 -0.76 2.46667 0 -0.78 2.46667 0 -0.8 2.46667 0 -0.82 2.46667 0 -0.84 2.46667 0 -0.86 2.46667 0 -0.88 2.46667 0 -0.9 2.46667 0 -0.92 2.46667 0 -0.94 2.46667 0 -0.96 2.46667 0 -0.98 2.46667 0 0.98 2.53333 0 0.96 2.53333 0 0.94 2.53333 0 0.92 2.53333 0 0.9 2.53333 0 0.88 2.53333 0 0.86 2.53333 0 0.84 2.53333 0 0.82 2.53333 0 0.8 2.53333 0 0.78 2.53333 0 0.76 2.53333 0 0.74 2.53333 0 0.72 2.53333 0 0.7 2.53333 0 0.68 2.53333 0 0.66 2.53333 0 0.64 2.53333 0 0.62 2.53333 0 0.6 2.53333 0 0.58 2.53333 0 0.56 2.53333 0 0.54 2.53333 0 0.52 2.53333 0 0.5 2.53333 0 0.48 2.53333 0 0.46 2.53333 0 0.44 2.53333 0 0.42 2.53333 0 0.4 2.53333 0 0.38 2.53333 0 0.36 2.53333 0 0.34 2.53333 0 0.32 2.53333 0 0.3 2.53333 0 0.28 2.53333 0 0.26 2.53333 0 0.24 2.53333 0 0.22 2.53333 0 0.2 2.53333 0 0.18 2.53333 0 0.16 2.53333 0 0.14 2.53333 0 0.12 2.53333 0 0.1 2.53333 0 0.08 2.53333 0 0.06 2.53333 0 0.04 2.53333 0 0.02 2.53333 0 -2.77556e-17 2.53333 0 -0.02 2.53333 0 -0.04 2.53333 0 -0.06 2.53333 0 -0.08 2.53333 0 -0.1 2.53333 0 -0.12 2.53333 0 -0.14 2.53333 0 -0.16 2.53333 0 -0.18 2.53333 0 -0.2 2.53333 0 -0.22 2.53333 0 -0.24 2.53333 0 -0.26 2.53333 0 -0.28 2.53333 0 -0.3 2.53333 0 -0.32 2.53333 0 -0.34 2.53333 0 -0.36 2.53333 0 -0.38 2.53333 0 -0.4 2.53333 0 -0.42 2.53333 0 -0.44 2.53333 0 -0.46 2.53333 0 -0.48 2.53333 0 -0.5 2.53333 0 -0.52 2.53333 0 -0.54 2.53333 0 -0.56 2.53333 0 -0.58 2.53333 0 -0.6 2.53333 0 -0.62 2.53333 0 -0.64 2.53333 0 -0.66 2.53333 0 -0.68 2.53333 0 -0.7 2.53333 0 -0.72 2.53333 0 -0.74 2.53333 0 -0.76 2.53333 0 -0.78 2.53333 0 -0.8 2.53333 0 -0.82 2.53333 0 -0.84 2.53333 0 -0.86 2.53333 0 -0.88 2.53333 0 -0.9 2.53333 0 -0.92 2.53333 0 -0.94 2.53333 0 -0.96 2.53333 0 -0.98 2.53333 0 0.98 2.6 0 0.96 2.6 0 0.94 2.6 0 0.92 2.6 0 0.9 2.6 0 0.88 2.6 0 0.86 2.6 0 0.84 2.6 0 0.82 2.6 0 0.8 2.6 0 0.78 2.6 0 0.76 2.6 0 0.74 2.6 0 0.72 2.6 0 0.7 2.6 0 0.68 2.6 0 0.66 2.6 0 0.64 2.6 0 0.62 2.6 0 0.6 2.6 0 0.58 2.6 0 0.56 2.6 0 0.54 2.6 0 0.52 2.6 0 0.5 2.6 0 0.48 2.6 0 0.46 2.6 0 0.44 2.6 0 0.42 2.6 0 0.4 2.6 0 0.38 2.6 0 0.36 2.6 0 0.34 2.6 0 0.32 2.6 0 0.3 2.6 0 0.28 2.6 0 0.26 2.6 0 0.24 2.6 0 0.22 2.6 0 0.2 2.6 0 0.18 2.6 0 0.16 2.6 0 0.14 2.6 0 0.12 2.6 0 0.1 2.6 0 0.08 2.6 0 0.06 2.6 0 0.04 2.6 0 0.02 2.6 0 -2.77556e-17 2.6 0 -0.02 2.6 0 -0.04 2.6 0 -0.06 2.6 0 -0.08 2.6 0 -0.1 2.6 0 -0.12 2.6 0 -0.14 2.6 0 -0.16 2.6 0 -0.18 2.6 0 -0.2 2.6 0 -0.22 2.6 0 -0.24 2.6 0 -0.26 2.6 0 -0.28 2.6 0 -0.3 2.6 0 -0.32 2.6 0 -0.34 2.6 0 -0.36 2.6 0 -0.38 2.6 0 -0.4 2.6 0 -0.42 2.6 0 -0.44 2.6 0 -0.46 2.6 0 -0.48 2.6 0 -0.5 2.6 0 -0.52 2.6 0 -0.54 2.6 0 -0.56 2.6 0 -0.58 2.6 0 -0.6 2.6 0 -0.62 2.6 0 -0.64 2.6 0 -0.66 2.6 0 -0.68 2.6 0 -0.7 2.6 0 -0.72 2.6 0 -0.74 2.6 0 -0.76 2.6 0 -0.78 2.6 0 -0.8 2.6 0 -0.82 2.6 0 -0.84 2.6 0 -0.86 2.6 0 -0.88 2.6 0 -0.9 2.6 0 -0.92 2.6 0 -0.94 2.6 0 -0.96 2.6 0 -0.98 2.6 0 0.98 2.66667 0 0.96 2.66667 0 0.94 2.66667 0 0.92 2.66667 0 0.9 2.66667 0 0.88 2.66667 0 0.86 2.66667 0 0.84 2.66667 0 0.82 2.66667 0 0.8 2.66667 0 0.78 2.66667 0 0.76 2.66667 0 0.74 2.66667 0 0.72 2.66667 0 0.7 2.66667 0 0.68 2.66667 0 0.66 2.66667 0 0.64 2.66667 0 0.62 2.66667 0 0.6 2.66667 0 0.58 2.66667 0 0.56 2.66667 0 0.54 2.66667 0 0.52 2.66667 0 0.5 2.66667 0 0.48 2.66667 0 0.46 2.66667 0 0.44 2.66667 0 0.42 2.66667 0 0.4 2.66667 0 0.38 2.66667 0 0.36 2.66667 0 0.34 2.66667 0 0.32 2.66667 0 0.3 2.66667 0 0.28 2.66667 0 0.26 2.66667 0 0.24 2.66667 0 0.22 2.66667 0 0.2 2.66667 0 0.18 2.66667 0 0.16 2.66667 0 0.14 2.66667 0 0.12 2.66667 0 0.1 2.66667 0 0.08 2.66667 0 0.06 2.66667 0 0.04 2.66667 0 0.02 2.66667 0 -2.77556e-17 2.66667 0 -0.02 2.66667 0 -0.04 2.66667 0 -0.06 2.66667 0 -0.08 2.66667 0 -0.1 2.66667 0 -0.12 2.66667 0 -0.14 2.66667 0 -0.16 2.66667 0 -0.18 2.66667 0 -0.2 2.66667 0 -0.22 2.66667 0 -0.24 2.66667 0 -0.26 2.66667 0 -0.28 2.66667 0 -0.3 2.66667 0 -0.32 2.66667 0 -0.34 2.66667 0 -0.36 2.66667 0 -0.38 2.66667 0 -0.4 2.66667 0 -0.42 2.66667 0 -0.44 2.66667 0 -0.46 2.66667 0 -0.48 2.66667 0 -0.5 2.66667 0 -0.52 2.66667 0 -0.54 2.66667 0 -0.56 2.66667 0 -0.58 2.66667 0 -0.6 2.66667 0 -0.62 2.66667 0 -0.64 2.66667 0 -0.66 2.66667 0 -0.68 2.66667 0 -0.7 2.66667 0 -0.72 2.66667 0 -0.74 2.66667 0 -0.76 2.66667 0 -0.78 2.66667 0 -0.8 2.66667 0 -0.82 2.66667 0 -0.84 2.66667 0 -0.86 2.66667 0 -0.88 2.66667 0 -0.9 2.66667 0 -0.92 2.66667 0 -0.94 2.66667 0 -0.96 2.66667 0 -0.98 2.66667 0 0.98 2.73333 0 0.96 2.73333 0 0.94 2.73333 0 0.92 2.73333 0 0.9 2.73333 0 0.88 2.73333 0 0.86 2.73333 0 0.84 2.73333 0 0.82 2.73333 0 0.8 2.73333 0 0.78 2.73333 0 0.76 2.73333 0 0.74 2.73333 0 0.72 2.73333 0 0.7 2.73333 0 0.68 2.73333 0 0.66 2.73333 0 0.64 2.73333 0 0.62 2.73333 0 0.6 2.73333 0 0.58 2.73333 0 0.56 2.73333 0 0.54 2.73333 0 0.52 2.73333 0 0.5 2.73333 0 0.48 2.73333 0 0.46 2.73333 0 0.44 2.73333 0 0.42 2.73333 0 0.4 2.73333 0 0.38 2.73333 0 0.36 2.73333 0 0.34 2.73333 0 0.32 2.73333 0 0.3 2.73333 0 0.28 2.73333 0 0.26 2.73333 0 0.24 2.73333 0 0.22 2.73333 0 0.2 2.73333 0 0.18 2.73333 0 0.16 2.73333 0 0.14 2.73333 0 0.12 2.73333 0 0.1 2.73333 0 0.08 2.73333 0 0.06 2.73333 0 0.04 2.73333 0 0.02 2.73333 0 -5.55112e-17 2.73333 0 -0.02 2.73333 0 -0.04 2.73333 0 -0.06 2.73333 0 -0.08 2.73333 0 -0.1 2.73333 0 -0.12 2.73333 0 -0.14 2.73333 0 -0.16 2.73333 0 -0.18 2.73333 0 -0.2 2.73333 0 -0.22 2.73333 0 -0.24 2.73333 0 -0.26 2.73333 0 -0.28 2.73333 0 -0.3 2.73333 0 -0.32 2.73333 0 -0.34 2.73333 0 -0.36 2.73333 0 -0.38 2.73333 0 -0.4 2.73333 0 -0.42 2.73333 0 -0.44 2.73333 0 -0.46 2.73333 0 -0.48 2.73333 0 -0.5 2.73333 0 -0.52 2.73333 0 -0.54 2.73333 0 -0.56 2.73333 0 -0.58 2.73333 0 -0.6 2.73333 0 -0.62 2.73333 0 -0.64 2.73333 0 -0.66 2.73333 0 -0.68 2.73333 0 -0.7 2.73333 0 -0.72 2.73333 0 -0.74 2.73333 0 -0.76 2.73333 0 -0.78 2.73333 0 -0.8 2.73333 0 -0.82 2.73333 0 -0.84 2.73333 0 -0.86 2.73333 0 -0.88 2.73333 0 -0.9 2.73333 0 -0.92 2.73333 0 -0.94 2.73333 0 -0.96 2.73333 0 -0.98 2.73333 0 0.98 2.8 0 0.96 2.8 0 0.94 2.8 0 0.92 2.8 0 0.9 2.8 0 0.88 2.8 0 0.86 2.8 0 0.84 2.8 0 0.82 2.8 0 0.8 2.8 0 0.78 2.8 0 0.76 2.8 0 0.74 2.8 0 0.72 2.8 0 0.7 2.8 0 0.68 2.8 0 0.66 2.8 0 0.64 2.8 0 0.62 2.8 0 0.6 2.8 0 0.58 2.8 0 0.56 2.8 0 0.54 2.8 0 0.52 2.8 0 0.5 2.8 0 0.48 2.8 0 0.46 2.8 0 0.44 2.8 0 0.42 2.8 0 0.4 2.8 0 0.38 2.8 0 0.36 2.8 0 0.34 2.8 0 0.32 2.8 0 0.3 2.8 0 0.28 2.8 0 0.26 2.8 0 0.24 2.8 0 0.22 2.8 0 0.2 2.8 0 0.18 2.8 0 0.16 2.8 0 0.14 2.8 0 0.12 2.8 0 0.1 2.8 0 0.08 2.8 0 0.06 2.8 0 0.04 2.8 0 0.02 2.8 0 -5.55112e-17 2.8 0 -0.02 2.8 0 -0.04 2.8 0 -0.06 2.8 0 -0.08 2.8 0 -0.1 2.8 0 -0.12 2.8 0 -0.14 2.8 0 -0.16 2.8 0 -0.18 2.8 0 -0.2 2.8 0 -0.22 2.8 0 -0.24 2.8 0 -0.26 2.8 0 -0.28 2.8 0 -0.3 2.8 0 -0.32 2.8 0 -0.34 2.8 0 -0.36 2.8 0 -0.38 2.8 0 -0.4 2.8 0 -0.42 2.8 0 -0.44 2.8 0 -0.46 2.8 0 -0.48 2.8 0 -0.5 2.8 0 -0.52 2.8 0 -0.54 2.8 0 -0.56 2.8 0 -0.58 2.8 0 -0.6 2.8 0 -0.62 2.8 0 -0.64 2.8 0 -0.66 2.8 0 -0.68 2.8 0 -0.7 2.8 0 -0.72 2.8 0 -0.74 2.8 0 -0.76 2.8 0 -0.78 2.8 0 -0.8 2.8 0 -0.82 2.8 0 -0.84 2.8 0 -0.86 2.8 0 -0.88 2.8 0 -0.9 2.8 0 -0.92 2.8 0 -0.94 2.8 0 -0.96 2.8 0 -0.98 2.8 0 0.98 2.86667 0 0.96 2.86667 0 0.94 2.86667 0 0.92 2.86667 0 0.9 2.86667 0 0.88 2.86667 0 0.86 2.86667 0 0.84 2.86667 0 0.82 2.86667 0 0.8 2.86667 0 0.78 2.86667 0 0.76 2.86667 0 0.74 2.86667 0 0.72 2.86667 0 0.7 2.86667 0 0.68 2.86667 0 0.66 2.86667 0 0.64 2.86667 0 0.62 2.86667 0 0.6 2.86667 0 0.58 2.86667 0 0.56 2.86667 0 0.54 2.86667 0 0.52 2.86667 0 0.5 2.86667 0 0.48 2.86667 0 0.46 2.86667 0 0.44 2.86667 0 0.42 2.86667 0 0.4 2.86667 0 0.38 2.86667 0 0.36 2.86667 0 0.34 2.86667 0 0.32 2.86667 0 0.3 2.86667 0 0.28 2.86667 0 0.26 2.86667 0 0.24 2.86667 0 0.22 2.86667 0 0.2 2.86667 0 0.18 2.86667 0 0.16 2.86667 0 0.14 2.86667 0 0.12 2.86667 0 0.1 2.86667 0 0.08 2.86667 0 0.06 2.86667 0 0.04 2.86667 0 0.02 2.86667 0 -5.55112e-17 2.86667 0 -0.02 2.86667 0 -0.04 2.86667 0 -0.06 2.86667 0 -0.08 2.86667 0 -0.1 2.86667 0 -0.12 2.86667 0 -0.14 2.86667 0 -0.16 2.86667 0 -0.18 2.86667 0 -0.2 2.86667 0 -0.22 2.86667 0 -0.24 2.86667 0 -0.26 2.86667 0 -0.28 2.86667 0 -0.3 2.86667 0 -0.32 2.86667 0 -0.34 2.86667 0 -0.36 2.86667 0 -0.38 2.86667 0 -0.4 2.86667 0 -0.42 2.86667 0 -0.44 2.86667 0 -0.46 2.86667 0 -0.48 2.86667 0 -0.5 2.86667 0 -0.52 2.86667 0 -0.54 2.86667 0 -0.56 2.86667 0 -0.58 2.86667 0 -0.6 2.86667 0 -0.62 2.86667 0 -0.64 2.86667 0 -0.66 2.86667 0 -0.68 2.86667 0 -0.7 2.86667 0 -0.72 2.86667 0 -0.74 2.86667 0 -0.76 2.86667 0 -0.78 2.86667 0 -0.8 2.86667 0 -0.82 2.86667 0 -0.84 2.86667 0 -0.86 2.86667 0 -0.88 2.86667 0 -0.9 2.86667 0 -0.92 2.86667 0 -0.94 2.86667 0 -0.96 2.86667 0 -0.98 2.86667 0 0.98 2.93333 0 0.96 2.93333 0 0.94 2.93333 0 0.92 2.93333 0 0.9 2.93333 0 0.88 2.93333 0 0.86 2.93333 0 0.84 2.93333 0 0.82 2.93333 0 0.8 2.93333 0 0.78 2.93333 0 0.76 2.93333 0 0.74 2.93333 0 0.72 2.93333 0 0.7 2.93333 0 0.68 2.93333 0 0.66 2.93333 0 0.64 2.93333 0 0.62 2.93333 0 0.6 2.93333 0 0.58 2.93333 0 0.56 2.93333 0 0.54 2.93333 0 0.52 2.93333 0 0.5 2.93333 0 0.48 2.93333 0 0.46 2.93333 0 0.44 2.93333 0 0.42 2.93333 0 0.4 2.93333 0 0.38 2.93333 0 0.36 2.93333 0 0.34 2.93333 0 0.32 2.93333 0 0.3 2.93333 0 0.28 2.93333 0 0.26 2.93333 0 0.24 2.93333 0 0.22 2.93333 0 0.2 2.93333 0 0.18 2.93333 0 0.16 2.93333 0 0.14 2.93333 0 0.12 2.93333 0 0.1 2.93333 0 0.08 2.93333 0 0.06 2.93333 0 0.04 2.93333 0 0.02 2.93333 0 -5.55112e-17 2.93333 0 -0.02 2.93333 0 -0.04 2.93333 0 -0.06 2.93333 0 -0.08 2.93333 0 -0.1 2.93333 0 -0.12 2.93333 0 -0.14 2.93333 0 -0.16 2.93333 0 -0.18 2.93333 0 -0.2 2.93333 0 -0.22 2.93333 0 -0.24 2.93333 0 -0.26 2.93333 0 -0.28 2.93333 0 -0.3 2.93333 0 -0.32 2.93333 0 -0.34 2.93333 0 -0.36 2.93333 0 -0.38 2.93333 0 -0.4 2.93333 0 -0.42 2.93333 0 -0.44 2.93333 0 -0.46 2.93333 0 -0.48 2.93333 0 -0.5 2.93333 0 -0.52 2.93333 0 -0.54 2.93333 0 -0.56 2.93333 0 -0.58 2.93333 0 -0.6 2.93333 0 -0.62 2.93333 0 -0.64 2.93333 0 -0.66 2.93333 0 -0.68 2.93333 0 -0.7 2.93333 0 -0.72 2.93333 0 -0.74 2.93333 0 -0.76 2.93333 0 -0.78 2.93333 0 -0.8 2.93333 0 -0.82 2.93333 0 -0.84 2.93333 0 -0.86 2.93333 0 -0.88 2.93333 0 -0.9 2.93333 0 -0.92 2.93333 0 -0.94 2.93333 0 -0.96 2.93333 0 -0.98 2.93333 0 0.98 3 0 0.96 3 0 0.94 3 0 0.92 3 0 0.9 3 0 0.88 3 0 0.86 3 0 0.84 3 0 0.82 3 0 0.8 3 0 0.78 3 0 0.76 3 0 0.74 3 0 0.72 3 0 0.7 3 0 0.68 3 0 0.66 3 0 0.64 3 0 0.62 3 0 0.6 3 0 0.58 3 0 0.56 3 0 0.54 3 0 0.52 3 0 0.5 3 0 0.48 3 0 0.46 3 0 0.44 3 0 0.42 3 0 0.4 3 0 0.38 3 0 0.36 3 0 0.34 3 0 0.32 3 0 0.3 3 0 0.28 3 0 0.26 3 0 0.24 3 0 0.22 3 0 0.2 3 0 0.18 3 0 0.16 3 0 0.14 3 0 0.12 3 0 0.1 3 0 0.08 3 0 0.06 3 0 0.04 3 0 0.02 3 0 -5.55112e-17 3 0 -0.02 3 0 -0.04 3 0 -0.06 3 0 -0.08 3 0 -0.1 3 0 -0.12 3 0 -0.14 3 0 -0.16 3 0 -0.18 3 0 -0.2 3 0 -0.22 3 0 -0.24 3 0 -0.26 3 0 -0.28 3 0 -0.3 3 0 -0.32 3 0 -0.34 3 0 -0.36 3 0 -0.38 3 0 -0.4 3 0 -0.42 3 0 -0.44 3 0 -0.46 3 0 -0.48 3 0 -0.5 3 0 -0.52 3 0 -0.54 3 0 -0.56 3 0 -0.58 3 0 -0.6 3 0 -0.62 3 0 -0.64 3 0 -0.66 3 0 -0.68 3 0 -0.7 3 0 -0.72 3 0 -0.74 3 0 -0.76 3 0 -0.78 3 0 -0.8 3 0 -0.82 3 0 -0.84 3 0 -0.86 3 0 -0.88 3 0 -0.9 3 0 -0.92 3 0 -0.94 3 0 -0.96 3 0 -0.98 3 0 0.98 3.06667 0 0.96 3.06667 0 0.94 3.06667 0 0.92 3.06667 0 0.9 3.06667 0 0.88 3.06667 0 0.86 3.06667 0 0.84 3.06667 0 0.82 3.06667 0 0.8 3.06667 0 0.78 3.06667 0 0.76 3.06667 0 0.74 3.06667 0 0.72 3.06667 0 0.7 3.06667 0 0.68 3.06667 0 0.66 3.06667 0 0.64 3.06667 0 0.62 3.06667 0 0.6 3.06667 0 0.58 3.06667 0 0.56 3.06667 0 0.54 3.06667 0 0.52 3.06667 0 0.5 3.06667 0 0.48 3.06667 0 0.46 3.06667 0 0.44 3.06667 0 0.42 3.06667 0 0.4 3.06667 0 0.38 3.06667 0 0.36 3.06667 0 0.34 3.06667 0 0.32 3.06667 0 0.3 3.06667 0 0.28 3.06667 0 0.26 3.06667 0 0.24 3.06667 0 0.22 3.06667 0 0.2 3.06667 0 0.18 3.06667 0 0.16 3.06667 0 0.14 3.06667 0 0.12 3.06667 0 0.1 3.06667 0 0.08 3.06667 0 0.06 3.06667 0 0.04 3.06667 0 0.02 3.06667 0 -5.55112e-17 3.06667 0 -0.02 3.06667 0 -0.04 3.06667 0 -0.06 3.06667 0 -0.08 3.06667 0 -0.1 3.06667 0 -0.12 3.06667 0 -0.14 3.06667 0 -0.16 3.06667 0 -0.18 3.06667 0 -0.2 3.06667 0 -0.22 3.06667 0 -0.24 3.06667 0 -0.26 3.06667 0 -0.28 3.06667 0 -0.3 3.06667 0 -0.32 3.06667 0 -0.34 3.06667 0 -0.36 3.06667 0 -0.38 3.06667 0 -0.4 3.06667 0 -0.42 3.06667 0 -0.44 3.06667 0 -0.46 3.06667 0 -0.48 3.06667 0 -0.5 3.06667 0 -0.52 3.06667 0 -0.54 3.06667 0 -0.56 3.06667 0 -0.58 3.06667 0 -0.6 3.06667 0 -0.62 3.06667 0 -0.64 3.06667 0 -0.66 3.06667 0 -0.68 3.06667 0 -0.7 3.06667 0 -0.72 3.06667 0 -0.74 3.06667 0 -0.76 3.06667 0 -0.78 3.06667 0 -0.8 3.06667 0 -0.82 3.06667 0 -0.84 3.06667 0 -0.86 3.06667 0 -0.88 3.06667 0 -0.9 3.06667 0 -0.92 3.06667 0 -0.94 3.06667 0 -0.96 3.06667 0 -0.98 3.06667 0 0.98 3.13333 0 0.96 3.13333 0 0.94 3.13333 0 0.92 3.13333 0 0.9 3.13333 0 0.88 3.13333 0 0.86 3.13333 0 0.84 3.13333 0 0.82 3.13333 0 0.8 3.13333 0 0.78 3.13333 0 0.76 3.13333 0 0.74 3.13333 0 0.72 3.13333 0 0.7 3.13333 0 0.68 3.13333 0 0.66 3.13333 0 0.64 3.13333 0 0.62 3.13333 0 0.6 3.13333 0 0.58 3.13333 0 0.56 3.13333 0 0.54 3.13333 0 0.52 3.13333 0 0.5 3.13333 0 0.48 3.13333 0 0.46 3.13333 0 0.44 3.13333 0 0.42 3.13333 0 0.4 3.13333 0 0.38 3.13333 0 0.36 3.13333 0 0.34 3.13333 0 0.32 3.13333 0 0.3 3.13333 0 0.28 3.13333 0 0.26 3.13333 0 0.24 3.13333 0 0.22 3.13333 0 0.2 3.13333 0 0.18 3.13333 0 0.16 3.13333 0 0.14 3.13333 0 0.12 3.13333 0 0.1 3.13333 0 0.08 3.13333 0 0.06 3.13333 0 0.04 3.13333 0 0.02 3.13333 0 -5.55112e-17 3.13333 0 -0.02 3.13333 0 -0.04 3.13333 0 -0.06 3.13333 0 -0.08 3.13333 0 -0.1 3.13333 0 -0.12 3.13333 0 -0.14 3.13333 0 -0.16 3.13333 0 -0.18 3.13333 0 -0.2 3.13333 0 -0.22 3.13333 0 -0.24 3.13333 0 -0.26 3.13333 0 -0.28 3.13333 0 -0.3 3.13333 0 -0.32 3.13333 0 -0.34 3.13333 0 -0.36 3.13333 0 -0.38 3.13333 0 -0.4 3.13333 0 -0.42 3.13333 0 -0.44 3.13333 0 -0.46 3.13333 0 -0.48 3.13333 0 -0.5 3.13333 0 -0.52 3.13333 0 -0.54 3.13333 0 -0.56 3.13333 0 -0.58 3.13333 0 -0.6 3.13333 0 -0.62 3.13333 0 -0.64 3.13333 0 -0.66 3.13333 0 -0.68 3.13333 0 -0.7 3.13333 0 -0.72 3.13333 0 -0.74 3.13333 0 -0.76 3.13333 0 -0.78 3.13333 0 -0.8 3.13333 0 -0.82 3.13333 0 -0.84 3.13333 0 -0.86 3.13333 0 -0.88 3.13333 0 -0.9 3.13333 0 -0.92 3.13333 0 -0.94 3.13333 0 -0.96 3.13333 0 -0.98 3.13333 0 0.98 3.2 0 0.96 3.2 0 0.94 3.2 0 0.92 3.2 0 0.9 3.2 0 0.88 3.2 0 0.86 3.2 0 0.84 3.2 0 0.82 3.2 0 0.8 3.2 0 0.78 3.2 0 0.76 3.2 0 0.74 3.2 0 0.72 3.2 0 0.7 3.2 0 0.68 3.2 0 0.66 3.2 0 0.64 3.2 0 0.62 3.2 0 0.6 3.2 0 0.58 3.2 0 0.56 3.2 0 0.54 3.2 0 0.52 3.2 0 0.5 3.2 0 0.48 3.2 0 0.46 3.2 0 0.44 3.2 0 0.42 3.2 0 0.4 3.2 0 0.38 3.2 0 0.36 3.2 0 0.34 3.2 0 0.32 3.2 0 0.3 3.2 0 0.28 3.2 0 0.26 3.2 0 0.24 3.2 0 0.22 3.2 0 0.2 3.2 0 0.18 3.2 0 0.16 3.2 0 0.14 3.2 0 0.12 3.2 0 0.1 3.2 0 0.08 3.2 0 0.06 3.2 0 0.04 3.2 0 0.02 3.2 0 -5.55112e-17 3.2 0 -0.02 3.2 0 -0.04 3.2 0 -0.06 3.2 0 -0.08 3.2 0 -0.1 3.2 0 -0.12 3.2 0 -0.14 3.2 0 -0.16 3.2 0 -0.18 3.2 0 -0.2 3.2 0 -0.22 3.2 0 -0.24 3.2 0 -0.26 3.2 0 -0.28 3.2 0 -0.3 3.2 0 -0.32 3.2 0 -0.34 3.2 0 -0.36 3.2 0 -0.38 3.2 0 -0.4 3.2 0 -0.42 3.2 0 -0.44 3.2 0 -0.46 3.2 0 -0.48 3.2 0 -0.5 3.2 0 -0.52 3.2 0 -0.54 3.2 0 -0.56 3.2 0 -0.58 3.2 0 -0.6 3.2 0 -0.62 3.2 0 -0.64 3.2 0 -0.66 3.2 0 -0.68 3.2 0 -0.7 3.2 0 -0.72 3.2 0 -0.74 3.2 0 -0.76 3.2 0 -0.78 3.2 0 -0.8 3.2 0 -0.82 3.2 0 -0.84 3.2 0 -0.86 3.2 0 -0.88 3.2 0 -0.9 3.2 0 -0.92 3.2 0 -0.94 3.2 0 -0.96 3.2 0 -0.98 3.2 0 0.98 3.26667 0 0.96 3.26667 0 0.94 3.26667 0 0.92 3.26667 0 0.9 3.26667 0 0.88 3.26667 0 0.86 3.26667 0 0.84 3.26667 0 0.82 3.26667 0 0.8 3.26667 0 0.78 3.26667 0 0.76 3.26667 0 0.74 3.26667 0 0.72 3.26667 0 0.7 3.26667 0 0.68 3.26667 0 0.66 3.26667 0 0.64 3.26667 0 0.62 3.26667 0 0.6 3.26667 0 0.58 3.26667 0 0.56 3.26667 0 0.54 3.26667 0 0.52 3.26667 0 0.5 3.26667 0 0.48 3.26667 0 0.46 3.26667 0 0.44 3.26667 0 0.42 3.26667 0 0.4 3.26667 0 0.38 3.26667 0 0.36 3.26667 0 0.34 3.26667 0 0.32 3.26667 0 0.3 3.26667 0 0.28 3.26667 0 0.26 3.26667 0 0.24 3.26667 0 0.22 3.26667 0 0.2 3.26667 0 0.18 3.26667 0 0.16 3.26667 0 0.14 3.26667 0 0.12 3.26667 0 0.1 3.26667 0 0.08 3.26667 0 0.06 3.26667 0 0.04 3.26667 0 0.02 3.26667 0 5.55112e-17 3.26667 0 -0.02 3.26667 0 -0.04 3.26667 0 -0.06 3.26667 0 -0.08 3.26667 0 -0.1 3.26667 0 -0.12 3.26667 0 -0.14 3.26667 0 -0.16 3.26667 0 -0.18 3.26667 0 -0.2 3.26667 0 -0.22 3.26667 0 -0.24 3.26667 0 -0.26 3.26667 0 -0.28 3.26667 0 -0.3 3.26667 0 -0.32 3.26667 0 -0.34 3.26667 0 -0.36 3.26667 0 -0.38 3.26667 0 -0.4 3.26667 0 -0.42 3.26667 0 -0.44 3.26667 0 -0.46 3.26667 0 -0.48 3.26667 0 -0.5 3.26667 0 -0.52 3.26667 0 -0.54 3.26667 0 -0.56 3.26667 0 -0.58 3.26667 0 -0.6 3.26667 0 -0.62 3.26667 0 -0.64 3.26667 0 -0.66 3.26667 0 -0.68 3.26667 0 -0.7 3.26667 0 -0.72 3.26667 0 -0.74 3.26667 0 -0.76 3.26667 0 -0.78 3.26667 0 -0.8 3.26667 0 -0.82 3.26667 0 -0.84 3.26667 0 -0.86 3.26667 0 -0.88 3.26667 0 -0.9 3.26667 0 -0.92 3.26667 0 -0.94 3.26667 0 -0.96 3.26667 0 -0.98 3.26667 0 0.98 3.33333 0 0.96 3.33333 0 0.94 3.33333 0 0.92 3.33333 0 0.9 3.33333 0 0.88 3.33333 0 0.86 3.33333 0 0.84 3.33333 0 0.82 3.33333 0 0.8 3.33333 0 0.78 3.33333 0 0.76 3.33333 0 0.74 3.33333 0 0.72 3.33333 0 0.7 3.33333 0 0.68 3.33333 0 0.66 3.33333 0 0.64 3.33333 0 0.62 3.33333 0 0.6 3.33333 0 0.58 3.33333 0 0.56 3.33333 0 0.54 3.33333 0 0.52 3.33333 0 0.5 3.33333 0 0.48 3.33333 0 0.46 3.33333 0 0.44 3.33333 0 0.42 3.33333 0 0.4 3.33333 0 0.38 3.33333 0 0.36 3.33333 0 0.34 3.33333 0 0.32 3.33333 0 0.3 3.33333 0 0.28 3.33333 0 0.26 3.33333 0 0.24 3.33333 0 0.22 3.33333 0 0.2 3.33333 0 0.18 3.33333 0 0.16 3.33333 0 0.14 3.33333 0 0.12 3.33333 0 0.1 3.33333 0 0.08 3.33333 0 0.06 3.33333 0 0.04 3.33333 0 0.02 3.33333 0 5.55112e-17 3.33333 0 -0.02 3.33333 0 -0.04 3.33333 0 -0.06 3.33333 0 -0.08 3.33333 0 -0.1 3.33333 0 -0.12 3.33333 0 -0.14 3.33333 0 -0.16 3.33333 0 -0.18 3.33333 0 -0.2 3.33333 0 -0.22 3.33333 0 -0.24 3.33333 0 -0.26 3.33333 0 -0.28 3.33333 0 -0.3 3.33333 0 -0.32 3.33333 0 -0.34 3.33333 0 -0.36 3.33333 0 -0.38 3.33333 0 -0.4 3.33333 0 -0.42 3.33333 0 -0.44 3.33333 0 -0.46 3.33333 0 -0.48 3.33333 0 -0.5 3.33333 0 -0.52 3.33333 0 -0.54 3.33333 0 -0.56 3.33333 0 -0.58 3.33333 0 -0.6 3.33333 0 -0.62 3.33333 0 -0.64 3.33333 0 -0.66 3.33333 0 -0.68 3.33333 0 -0.7 3.33333 0 -0.72 3.33333 0 -0.74 3.33333 0 -0.76 3.33333 0 -0.78 3.33333 0 -0.8 3.33333 0 -0.82 3.33333 0 -0.84 3.33333 0 -0.86 3.33333 0 -0.88 3.33333 0 -0.9 3.33333 0 -0.92 3.33333 0 -0.94 3.33333 0 -0.96 3.33333 0 -0.98 3.33333 0 0.98 3.4 0 0.96 3.4 0 0.94 3.4 0 0.92 3.4 0 0.9 3.4 0 0.88 3.4 0 0.86 3.4 0 0.84 3.4 0 0.82 3.4 0 0.8 3.4 0 0.78 3.4 0 0.76 3.4 0 0.74 3.4 0 0.72 3.4 0 0.7 3.4 0 0.68 3.4 0 0.66 3.4 0 0.64 3.4 0 0.62 3.4 0 0.6 3.4 0 0.58 3.4 0 0.56 3.4 0 0.54 3.4 0 0.52 3.4 0 0.5 3.4 0 0.48 3.4 0 0.46 3.4 0 0.44 3.4 0 0.42 3.4 0 0.4 3.4 0 0.38 3.4 0 0.36 3.4 0 0.34 3.4 0 0.32 3.4 0 0.3 3.4 0 0.28 3.4 0 0.26 3.4 0 0.24 3.4 0 0.22 3.4 0 0.2 3.4 0 0.18 3.4 0 0.16 3.4 0 0.14 3.4 0 0.12 3.4 0 0.1 3.4 0 0.08 3.4 0 0.06 3.4 0 0.04 3.4 0 0.02 3.4 0 5.55112e-17 3.4 0 -0.02 3.4 0 -0.04 3.4 0 -0.06 3.4 0 -0.08 3.4 0 -0.1 3.4 0 -0.12 3.4 0 -0.14 3.4 0 -0.16 3.4 0 -0.18 3.4 0 -0.2 3.4 0 -0.22 3.4 0 -0.24 3.4 0 -0.26 3.4 0 -0.28 3.4 0 -0.3 3.4 0 -0.32 3.4 0 -0.34 3.4 0 -0.36 3.4 0 -0.38 3.4 0 -0.4 3.4 0 -0.42 3.4 0 -0.44 3.4 0 -0.46 3.4 0 -0.48 3.4 0 -0.5 3.4 0 -0.52 3.4 0 -0.54 3.4 0 -0.56 3.4 0 -0.58 3.4 0 -0.6 3.4 0 -0.62 3.4 0 -0.64 3.4 0 -0.66 3.4 0 -0.68 3.4 0 -0.7 3.4 0 -0.72 3.4 0 -0.74 3.4 0 -0.76 3.4 0 -0.78 3.4 0 -0.8 3.4 0 -0.82 3.4 0 -0.84 3.4 0 -0.86 3.4 0 -0.88 3.4 0 -0.9 3.4 0 -0.92 3.4 0 -0.94 3.4 0 -0.96 3.4 0 -0.98 3.4 0 0.98 3.46667 0 0.96 3.46667 0 0.94 3.46667 0 0.92 3.46667 0 0.9 3.46667 0 0.88 3.46667 0 0.86 3.46667 0 0.84 3.46667 0 0.82 3.46667 0 0.8 3.46667 0 0.78 3.46667 0 0.76 3.46667 0 0.74 3.46667 0 0.72 3.46667 0 0.7 3.46667 0 0.68 3.46667 0 0.66 3.46667 0 0.64 3.46667 0 0.62 3.46667 0 0.6 3.46667 0 0.58 3.46667 0 0.56 3.46667 0 0.54 3.46667 0 0.52 3.46667 0 0.5 3.46667 0 0.48 3.46667 0 0.46 3.46667 0 0.44 3.46667 0 0.42 3.46667 0 0.4 3.46667 0 0.38 3.46667 0 0.36 3.46667 0 0.34 3.46667 0 0.32 3.46667 0 0.3 3.46667 0 0.28 3.46667 0 0.26 3.46667 0 0.24 3.46667 0 0.22 3.46667 0 0.2 3.46667 0 0.18 3.46667 0 0.16 3.46667 0 0.14 3.46667 0 0.12 3.46667 0 0.1 3.46667 0 0.08 3.46667 0 0.06 3.46667 0 0.04 3.46667 0 0.02 3.46667 0 5.55112e-17 3.46667 0 -0.02 3.46667 0 -0.04 3.46667 0 -0.06 3.46667 0 -0.08 3.46667 0 -0.1 3.46667 0 -0.12 3.46667 0 -0.14 3.46667 0 -0.16 3.46667 0 -0.18 3.46667 0 -0.2 3.46667 0 -0.22 3.46667 0 -0.24 3.46667 0 -0.26 3.46667 0 -0.28 3.46667 0 -0.3 3.46667 0 -0.32 3.46667 0 -0.34 3.46667 0 -0.36 3.46667 0 -0.38 3.46667 0 -0.4 3.46667 0 -0.42 3.46667 0 -0.44 3.46667 0 -0.46 3.46667 0 -0.48 3.46667 0 -0.5 3.46667 0 -0.52 3.46667 0 -0.54 3.46667 0 -0.56 3.46667 0 -0.58 3.46667 0 -0.6 3.46667 0 -0.62 3.46667 0 -0.64 3.46667 0 -0.66 3.46667 0 -0.68 3.46667 0 -0.7 3.46667 0 -0.72 3.46667 0 -0.74 3.46667 0 -0.76 3.46667 0 -0.78 3.46667 0 -0.8 3.46667 0 -0.82 3.46667 0 -0.84 3.46667 0 -0.86 3.46667 0 -0.88 3.46667 0 -0.9 3.46667 0 -0.92 3.46667 0 -0.94 3.46667 0 -0.96 3.46667 0 -0.98 3.46667 0 0.98 3.53333 0 0.96 3.53333 0 0.94 3.53333 0 0.92 3.53333 0 0.9 3.53333 0 0.88 3.53333 0 0.86 3.53333 0 0.84 3.53333 0 0.82 3.53333 0 0.8 3.53333 0 0.78 3.53333 0 0.76 3.53333 0 0.74 3.53333 0 0.72 3.53333 0 0.7 3.53333 0 0.68 3.53333 0 0.66 3.53333 0 0.64 3.53333 0 0.62 3.53333 0 0.6 3.53333 0 0.58 3.53333 0 0.56 3.53333 0 0.54 3.53333 0 0.52 3.53333 0 0.5 3.53333 0 0.48 3.53333 0 0.46 3.53333 0 0.44 3.53333 0 0.42 3.53333 0 0.4 3.53333 0 0.38 3.53333 0 0.36 3.53333 0 0.34 3.53333 0 0.32 3.53333 0 0.3 3.53333 0 0.28 3.53333 0 0.26 3.53333 0 0.24 3.53333 0 0.22 3.53333 0 0.2 3.53333 0 0.18 3.53333 0 0.16 3.53333 0 0.14 3.53333 0 0.12 3.53333 0 0.1 3.53333 0 0.08 3.53333 0 0.06 3.53333 0 0.04 3.53333 0 0.02 3.53333 0 5.55112e-17 3.53333 0 -0.02 3.53333 0 -0.04 3.53333 0 -0.06 3.53333 0 -0.08 3.53333 0 -0.1 3.53333 0 -0.12 3.53333 0 -0.14 3.53333 0 -0.16 3.53333 0 -0.18 3.53333 0 -0.2 3.53333 0 -0.22 3.53333 0 -0.24 3.53333 0 -0.26 3.53333 0 -0.28 3.53333 0 -0.3 3.53333 0 -0.32 3.53333 0 -0.34 3.53333 0 -0.36 3.53333 0 -0.38 3.53333 0 -0.4 3.53333 0 -0.42 3.53333 0 -0.44 3.53333 0 -0.46 3.53333 0 -0.48 3.53333 0 -0.5 3.53333 0 -0.52 3.53333 0 -0.54 3.53333 0 -0.56 3.53333 0 -0.58 3.53333 0 -0.6 3.53333 0 -0.62 3.53333 0 -0.64 3.53333 0 -0.66 3.53333 0 -0.68 3.53333 0 -0.7 3.53333 0 -0.72 3.53333 0 -0.74 3.53333 0 -0.76 3.53333 0 -0.78 3.53333 0 -0.8 3.53333 0 -0.82 3.53333 0 -0.84 3.53333 0 -0.86 3.53333 0 -0.88 3.53333 0 -0.9 3.53333 0 -0.92 3.53333 0 -0.94 3.53333 0 -0.96 3.53333 0 -0.98 3.53333 0 0.98 3.6 0 0.96 3.6 0 0.94 3.6 0 0.92 3.6 0 0.9 3.6 0 0.88 3.6 0 0.86 3.6 0 0.84 3.6 0 0.82 3.6 0 0.8 3.6 0 0.78 3.6 0 0.76 3.6 0 0.74 3.6 0 0.72 3.6 0 0.7 3.6 0 0.68 3.6 0 0.66 3.6 0 0.64 3.6 0 0.62 3.6 0 0.6 3.6 0 0.58 3.6 0 0.56 3.6 0 0.54 3.6 0 0.52 3.6 0 0.5 3.6 0 0.48 3.6 0 0.46 3.6 0 0.44 3.6 0 0.42 3.6 0 0.4 3.6 0 0.38 3.6 0 0.36 3.6 0 0.34 3.6 0 0.32 3.6 0 0.3 3.6 0 0.28 3.6 0 0.26 3.6 0 0.24 3.6 0 0.22 3.6 0 0.2 3.6 0 0.18 3.6 0 0.16 3.6 0 0.14 3.6 0 0.12 3.6 0 0.1 3.6 0 0.08 3.6 0 0.06 3.6 0 0.04 3.6 0 0.02 3.6 0 5.55112e-17 3.6 0 -0.02 3.6 0 -0.04 3.6 0 -0.06 3.6 0 -0.08 3.6 0 -0.1 3.6 0 -0.12 3.6 0 -0.14 3.6 0 -0.16 3.6 0 -0.18 3.6 0 -0.2 3.6 0 -0.22 3.6 0 -0.24 3.6 0 -0.26 3.6 0 -0.28 3.6 0 -0.3 3.6 0 -0.32 3.6 0 -0.34 3.6 0 -0.36 3.6 0 -0.38 3.6 0 -0.4 3.6 0 -0.42 3.6 0 -0.44 3.6 0 -0.46 3.6 0 -0.48 3.6 0 -0.5 3.6 0 -0.52 3.6 0 -0.54 3.6 0 -0.56 3.6 0 -0.58 3.6 0 -0.6 3.6 0 -0.62 3.6 0 -0.64 3.6 0 -0.66 3.6 0 -0.68 3.6 0 -0.7 3.6 0 -0.72 3.6 0 -0.74 3.6 0 -0.76 3.6 0 -0.78 3.6 0 -0.8 3.6 0 -0.82 3.6 0 -0.84 3.6 0 -0.86 3.6 0 -0.88 3.6 0 -0.9 3.6 0 -0.92 3.6 0 -0.94 3.6 0 -0.96 3.6 0 -0.98 3.6 0 0.98 3.66667 0 0.96 3.66667 0 0.94 3.66667 0 0.92 3.66667 0 0.9 3.66667 0 0.88 3.66667 0 0.86 3.66667 0 0.84 3.66667 0 0.82 3.66667 0 0.8 3.66667 0 0.78 3.66667 0 0.76 3.66667 0 0.74 3.66667 0 0.72 3.66667 0 0.7 3.66667 0 0.68 3.66667 0 0.66 3.66667 0 0.64 3.66667 0 0.62 3.66667 0 0.6 3.66667 0 0.58 3.66667 0 0.56 3.66667 0 0.54 3.66667 0 0.52 3.66667 0 0.5 3.66667 0 0.48 3.66667 0 0.46 3.66667 0 0.44 3.66667 0 0.42 3.66667 0 0.4 3.66667 0 0.38 3.66667 0 0.36 3.66667 0 0.34 3.66667 0 0.32 3.66667 0 0.3 3.66667 0 0.28 3.66667 0 0.26 3.66667 0 0.24 3.66667 0 0.22 3.66667 0 0.2 3.66667 0 0.18 3.66667 0 0.16 3.66667 0 0.14 3.66667 0 0.12 3.66667 0 0.1 3.66667 0 0.08 3.66667 0 0.06 3.66667 0 0.04 3.66667 0 0.02 3.66667 0 5.55112e-17 3.66667 0 -0.02 3.66667 0 -0.04 3.66667 0 -0.06 3.66667 0 -0.08 3.66667 0 -0.1 3.66667 0 -0.12 3.66667 0 -0.14 3.66667 0 -0.16 3.66667 0 -0.18 3.66667 0 -0.2 3.66667 0 -0.22 3.66667 0 -0.24 3.66667 0 -0.26 3.66667 0 -0.28 3.66667 0 -0.3 3.66667 0 -0.32 3.66667 0 -0.34 3.66667 0 -0.36 3.66667 0 -0.38 3.66667 0 -0.4 3.66667 0 -0.42 3.66667 0 -0.44 3.66667 0 -0.46 3.66667 0 -0.48 3.66667 0 -0.5 3.66667 0 -0.52 3.66667 0 -0.54 3.66667 0 -0.56 3.66667 0 -0.58 3.66667 0 -0.6 3.66667 0 -0.62 3.66667 0 -0.64 3.66667 0 -0.66 3.66667 0 -0.68 3.66667 0 -0.7 3.66667 0 -0.72 3.66667 0 -0.74 3.66667 0 -0.76 3.66667 0 -0.78 3.66667 0 -0.8 3.66667 0 -0.82 3.66667 0 -0.84 3.66667 0 -0.86 3.66667 0 -0.88 3.66667 0 -0.9 3.66667 0 -0.92 3.66667 0 -0.94 3.66667 0 -0.96 3.66667 0 -0.98 3.66667 0 0.98 3.73333 0 0.96 3.73333 0 0.94 3.73333 0 0.92 3.73333 0 0.9 3.73333 0 0.88 3.73333 0 0.86 3.73333 0 0.84 3.73333 0 0.82 3.73333 0 0.8 3.73333 0 0.78 3.73333 0 0.76 3.73333 0 0.74 3.73333 0 0.72 3.73333 0 0.7 3.73333 0 0.68 3.73333 0 0.66 3.73333 0 0.64 3.73333 0 0.62 3.73333 0 0.6 3.73333 0 0.58 3.73333 0 0.56 3.73333 0 0.54 3.73333 0 0.52 3.73333 0 0.5 3.73333 0 0.48 3.73333 0 0.46 3.73333 0 0.44 3.73333 0 0.42 3.73333 0 0.4 3.73333 0 0.38 3.73333 0 0.36 3.73333 0 0.34 3.73333 0 0.32 3.73333 0 0.3 3.73333 0 0.28 3.73333 0 0.26 3.73333 0 0.24 3.73333 0 0.22 3.73333 0 0.2 3.73333 0 0.18 3.73333 0 0.16 3.73333 0 0.14 3.73333 0 0.12 3.73333 0 0.1 3.73333 0 0.08 3.73333 0 0.06 3.73333 0 0.04 3.73333 0 0.02 3.73333 0 5.55112e-17 3.73333 0 -0.02 3.73333 0 -0.04 3.73333 0 -0.06 3.73333 0 -0.08 3.73333 0 -0.1 3.73333 0 -0.12 3.73333 0 -0.14 3.73333 0 -0.16 3.73333 0 -0.18 3.73333 0 -0.2 3.73333 0 -0.22 3.73333 0 -0.24 3.73333 0 -0.26 3.73333 0 -0.28 3.73333 0 -0.3 3.73333 0 -0.32 3.73333 0 -0.34 3.73333 0 -0.36 3.73333 0 -0.38 3.73333 0 -0.4 3.73333 0 -0.42 3.73333 0 -0.44 3.73333 0 -0.46 3.73333 0 -0.48 3.73333 0 -0.5 3.73333 0 -0.52 3.73333 0 -0.54 3.73333 0 -0.56 3.73333 0 -0.58 3.73333 0 -0.6 3.73333 0 -0.62 3.73333 0 -0.64 3.73333 0 -0.66 3.73333 0 -0.68 3.73333 0 -0.7 3.73333 0 -0.72 3.73333 0 -0.74 3.73333 0 -0.76 3.73333 0 -0.78 3.73333 0 -0.8 3.73333 0 -0.82 3.73333 0 -0.84 3.73333 0 -0.86 3.73333 0 -0.88 3.73333 0 -0.9 3.73333 0 -0.92 3.73333 0 -0.94 3.73333 0 -0.96 3.73333 0 -0.98 3.73333 0 0.98 3.8 0 0.96 3.8 0 0.94 3.8 0 0.92 3.8 0 0.9 3.8 0 0.88 3.8 0 0.86 3.8 0 0.84 3.8 0 0.82 3.8 0 0.8 3.8 0 0.78 3.8 0 0.76 3.8 0 0.74 3.8 0 0.72 3.8 0 0.7 3.8 0 0.68 3.8 0 0.66 3.8 0 0.64 3.8 0 0.62 3.8 0 0.6 3.8 0 0.58 3.8 0 0.56 3.8 0 0.54 3.8 0 0.52 3.8 0 0.5 3.8 0 0.48 3.8 0 0.46 3.8 0 0.44 3.8 0 0.42 3.8 0 0.4 3.8 0 0.38 3.8 0 0.36 3.8 0 0.34 3.8 0 0.32 3.8 0 0.3 3.8 0 0.28 3.8 0 0.26 3.8 0 0.24 3.8 0 0.22 3.8 0 0.2 3.8 0 0.18 3.8 0 0.16 3.8 0 0.14 3.8 0 0.12 3.8 0 0.1 3.8 0 0.08 3.8 0 0.06 3.8 0 0.04 3.8 0 0.02 3.8 0 5.55112e-17 3.8 0 -0.02 3.8 0 -0.04 3.8 0 -0.06 3.8 0 -0.08 3.8 0 -0.1 3.8 0 -0.12 3.8 0 -0.14 3.8 0 -0.16 3.8 0 -0.18 3.8 0 -0.2 3.8 0 -0.22 3.8 0 -0.24 3.8 0 -0.26 3.8 0 -0.28 3.8 0 -0.3 3.8 0 -0.32 3.8 0 -0.34 3.8 0 -0.36 3.8 0 -0.38 3.8 0 -0.4 3.8 0 -0.42 3.8 0 -0.44 3.8 0 -0.46 3.8 0 -0.48 3.8 0 -0.5 3.8 0 -0.52 3.8 0 -0.54 3.8 0 -0.56 3.8 0 -0.58 3.8 0 -0.6 3.8 0 -0.62 3.8 0 -0.64 3.8 0 -0.66 3.8 0 -0.68 3.8 0 -0.7 3.8 0 -0.72 3.8 0 -0.74 3.8 0 -0.76 3.8 0 -0.78 3.8 0 -0.8 3.8 0 -0.82 3.8 0 -0.84 3.8 0 -0.86 3.8 0 -0.88 3.8 0 -0.9 3.8 0 -0.92 3.8 0 -0.94 3.8 0 -0.96 3.8 0 -0.98 3.8 0 0.98 3.86667 0 0.96 3.86667 0 0.94 3.86667 0 0.92 3.86667 0 0.9 3.86667 0 0.88 3.86667 0 0.86 3.86667 0 0.84 3.86667 0 0.82 3.86667 0 0.8 3.86667 0 0.78 3.86667 0 0.76 3.86667 0 0.74 3.86667 0 0.72 3.86667 0 0.7 3.86667 0 0.68 3.86667 0 0.66 3.86667 0 0.64 3.86667 0 0.62 3.86667 0 0.6 3.86667 0 0.58 3.86667 0 0.56 3.86667 0 0.54 3.86667 0 0.52 3.86667 0 0.5 3.86667 0 0.48 3.86667 0 0.46 3.86667 0 0.44 3.86667 0 0.42 3.86667 0 0.4 3.86667 0 0.38 3.86667 0 0.36 3.86667 0 0.34 3.86667 0 0.32 3.86667 0 0.3 3.86667 0 0.28 3.86667 0 0.26 3.86667 0 0.24 3.86667 0 0.22 3.86667 0 0.2 3.86667 0 0.18 3.86667 0 0.16 3.86667 0 0.14 3.86667 0 0.12 3.86667 0 0.1 3.86667 0 0.08 3.86667 0 0.06 3.86667 0 0.04 3.86667 0 0.02 3.86667 0 5.55112e-17 3.86667 0 -0.02 3.86667 0 -0.04 3.86667 0 -0.06 3.86667 0 -0.08 3.86667 0 -0.1 3.86667 0 -0.12 3.86667 0 -0.14 3.86667 0 -0.16 3.86667 0 -0.18 3.86667 0 -0.2 3.86667 0 -0.22 3.86667 0 -0.24 3.86667 0 -0.26 3.86667 0 -0.28 3.86667 0 -0.3 3.86667 0 -0.32 3.86667 0 -0.34 3.86667 0 -0.36 3.86667 0 -0.38 3.86667 0 -0.4 3.86667 0 -0.42 3.86667 0 -0.44 3.86667 0 -0.46 3.86667 0 -0.48 3.86667 0 -0.5 3.86667 0 -0.52 3.86667 0 -0.54 3.86667 0 -0.56 3.86667 0 -0.58 3.86667 0 -0.6 3.86667 0 -0.62 3.86667 0 -0.64 3.86667 0 -0.66 3.86667 0 -0.68 3.86667 0 -0.7 3.86667 0 -0.72 3.86667 0 -0.74 3.86667 0 -0.76 3.86667 0 -0.78 3.86667 0 -0.8 3.86667 0 -0.82 3.86667 0 -0.84 3.86667 0 -0.86 3.86667 0 -0.88 3.86667 0 -0.9 3.86667 0 -0.92 3.86667 0 -0.94 3.86667 0 -0.96 3.86667 0 -0.98 3.86667 0 0.98 3.93333 0 0.96 3.93333 0 0.94 3.93333 0 0.92 3.93333 0 0.9 3.93333 0 0.88 3.93333 0 0.86 3.93333 0 0.84 3.93333 0 0.82 3.93333 0 0.8 3.93333 0 0.78 3.93333 0 0.76 3.93333 0 0.74 3.93333 0 0.72 3.93333 0 0.7 3.93333 0 0.68 3.93333 0 0.66 3.93333 0 0.64 3.93333 0 0.62 3.93333 0 0.6 3.93333 0 0.58 3.93333 0 0.56 3.93333 0 0.54 3.93333 0 0.52 3.93333 0 0.5 3.93333 0 0.48 3.93333 0 0.46 3.93333 0 0.44 3.93333 0 0.42 3.93333 0 0.4 3.93333 0 0.38 3.93333 0 0.36 3.93333 0 0.34 3.93333 0 0.32 3.93333 0 0.3 3.93333 0 0.28 3.93333 0 0.26 3.93333 0 0.24 3.93333 0 0.22 3.93333 0 0.2 3.93333 0 0.18 3.93333 0 0.16 3.93333 0 0.14 3.93333 0 0.12 3.93333 0 0.1 3.93333 0 0.08 3.93333 0 0.06 3.93333 0 0.04 3.93333 0 0.02 3.93333 0 5.55112e-17 3.93333 0 -0.02 3.93333 0 -0.04 3.93333 0 -0.06 3.93333 0 -0.08 3.93333 0 -0.1 3.93333 0 -0.12 3.93333 0 -0.14 3.93333 0 -0.16 3.93333 0 -0.18 3.93333 0 -0.2 3.93333 0 -0.22 3.93333 0 -0.24 3.93333 0 -0.26 3.93333 0 -0.28 3.93333 0 -0.3 3.93333 0 -0.32 3.93333 0 -0.34 3.93333 0 -0.36 3.93333 0 -0.38 3.93333 0 -0.4 3.93333 0 -0.42 3.93333 0 -0.44 3.93333 0 -0.46 3.93333 0 -0.48 3.93333 0 -0.5 3.93333 0 -0.52 3.93333 0 -0.54 3.93333 0 -0.56 3.93333 0 -0.58 3.93333 0 -0.6 3.93333 0 -0.62 3.93333 0 -0.64 3.93333 0 -0.66 3.93333 0 -0.68 3.93333 0 -0.7 3.93333 0 -0.72 3.93333 0 -0.74 3.93333 0 -0.76 3.93333 0 -0.78 3.93333 0 -0.8 3.93333 0 -0.82 3.93333 0 -0.84 3.93333 0 -0.86 3.93333 0 -0.88 3.93333 0 -0.9 3.93333 0 -0.92 3.93333 0 -0.94 3.93333 0 -0.96 3.93333 0 -0.98 3.93333 0 0.98 4 0 0.96 4 0 0.94 4 0 0.92 4 0 0.9 4 0 0.88 4 0 0.86 4 0 0.84 4 0 0.82 4 0 0.8 4 0 0.78 4 0 0.76 4 0 0.74 4 0 0.72 4 0 0.7 4 0 0.68 4 0 0.66 4 0 0.64 4 0 0.62 4 0 0.6 4 0 0.58 4 0 0.56 4 0 0.54 4 0 0.52 4 0 0.5 4 0 0.48 4 0 0.46 4 0 0.44 4 0 0.42 4 0 0.4 4 0 0.38 4 0 0.36 4 0 0.34 4 0 0.32 4 0 0.3 4 0 0.28 4 0 0.26 4 0 0.24 4 0 0.22 4 0 0.2 4 0 0.18 4 0 0.16 4 0 0.14 4 0 0.12 4 0 0.1 4 0 0.08 4 0 0.06 4 0 0.04 4 0 0.02 4 0 5.55112e-17 4 0 -0.02 4 0 -0.04 4 0 -0.06 4 0 -0.08 4 0 -0.1 4 0 -0.12 4 0 -0.14 4 0 -0.16 4 0 -0.18 4 0 -0.2 4 0 -0.22 4 0 -0.24 4 0 -0.26 4 0 -0.28 4 0 -0.3 4 0 -0.32 4 0 -0.34 4 0 -0.36 4 0 -0.38 4 0 -0.4 4 0 -0.42 4 0 -0.44 4 0 -0.46 4 0 -0.48 4 0 -0.5 4 0 -0.52 4 0 -0.54 4 0 -0.56 4 0 -0.58 4 0 -0.6 4 0 -0.62 4 0 -0.64 4 0 -0.66 4 0 -0.68 4 0 -0.7 4 0 -0.72 4 0 -0.74 4 0 -0.76 4 0 -0.78 4 0 -0.8 4 0 -0.82 4 0 -0.84 4 0 -0.86 4 0 -0.88 4 0 -0.9 4 0 -0.92 4 0 -0.94 4 0 -0.96 4 0 -0.98 4 0 0.98 4.06667 0 0.96 4.06667 0 0.94 4.06667 0 0.92 4.06667 0 0.9 4.06667 0 0.88 4.06667 0 0.86 4.06667 0 0.84 4.06667 0 0.82 4.06667 0 0.8 4.06667 0 0.78 4.06667 0 0.76 4.06667 0 0.74 4.06667 0 0.72 4.06667 0 0.7 4.06667 0 0.68 4.06667 0 0.66 4.06667 0 0.64 4.06667 0 0.62 4.06667 0 0.6 4.06667 0 0.58 4.06667 0 0.56 4.06667 0 0.54 4.06667 0 0.52 4.06667 0 0.5 4.06667 0 0.48 4.06667 0 0.46 4.06667 0 0.44 4.06667 0 0.42 4.06667 0 0.4 4.06667 0 0.38 4.06667 0 0.36 4.06667 0 0.34 4.06667 0 0.32 4.06667 0 0.3 4.06667 0 0.28 4.06667 0 0.26 4.06667 0 0.24 4.06667 0 0.22 4.06667 0 0.2 4.06667 0 0.18 4.06667 0 0.16 4.06667 0 0.14 4.06667 0 0.12 4.06667 0 0.1 4.06667 0 0.08 4.06667 0 0.06 4.06667 0 0.04 4.06667 0 0.02 4.06667 0 5.55112e-17 4.06667 0 -0.02 4.06667 0 -0.04 4.06667 0 -0.06 4.06667 0 -0.08 4.06667 0 -0.1 4.06667 0 -0.12 4.06667 0 -0.14 4.06667 0 -0.16 4.06667 0 -0.18 4.06667 0 -0.2 4.06667 0 -0.22 4.06667 0 -0.24 4.06667 0 -0.26 4.06667 0 -0.28 4.06667 0 -0.3 4.06667 0 -0.32 4.06667 0 -0.34 4.06667 0 -0.36 4.06667 0 -0.38 4.06667 0 -0.4 4.06667 0 -0.42 4.06667 0 -0.44 4.06667 0 -0.46 4.06667 0 -0.48 4.06667 0 -0.5 4.06667 0 -0.52 4.06667 0 -0.54 4.06667 0 -0.56 4.06667 0 -0.58 4.06667 0 -0.6 4.06667 0 -0.62 4.06667 0 -0.64 4.06667 0 -0.66 4.06667 0 -0.68 4.06667 0 -0.7 4.06667 0 -0.72 4.06667 0 -0.74 4.06667 0 -0.76 4.06667 0 -0.78 4.06667 0 -0.8 4.06667 0 -0.82 4.06667 0 -0.84 4.06667 0 -0.86 4.06667 0 -0.88 4.06667 0 -0.9 4.06667 0 -0.92 4.06667 0 -0.94 4.06667 0 -0.96 4.06667 0 -0.98 4.06667 0 0.98 4.13333 0 0.96 4.13333 0 0.94 4.13333 0 0.92 4.13333 0 0.9 4.13333 0 0.88 4.13333 0 0.86 4.13333 0 0.84 4.13333 0 0.82 4.13333 0 0.8 4.13333 0 0.78 4.13333 0 0.76 4.13333 0 0.74 4.13333 0 0.72 4.13333 0 0.7 4.13333 0 0.68 4.13333 0 0.66 4.13333 0 0.64 4.13333 0 0.62 4.13333 0 0.6 4.13333 0 0.58 4.13333 0 0.56 4.13333 0 0.54 4.13333 0 0.52 4.13333 0 0.5 4.13333 0 0.48 4.13333 0 0.46 4.13333 0 0.44 4.13333 0 0.42 4.13333 0 0.4 4.13333 0 0.38 4.13333 0 0.36 4.13333 0 0.34 4.13333 0 0.32 4.13333 0 0.3 4.13333 0 0.28 4.13333 0 0.26 4.13333 0 0.24 4.13333 0 0.22 4.13333 0 0.2 4.13333 0 0.18 4.13333 0 0.16 4.13333 0 0.14 4.13333 0 0.12 4.13333 0 0.1 4.13333 0 0.08 4.13333 0 0.06 4.13333 0 0.04 4.13333 0 0.02 4.13333 0 5.55112e-17 4.13333 0 -0.02 4.13333 0 -0.04 4.13333 0 -0.06 4.13333 0 -0.08 4.13333 0 -0.1 4.13333 0 -0.12 4.13333 0 -0.14 4.13333 0 -0.16 4.13333 0 -0.18 4.13333 0 -0.2 4.13333 0 -0.22 4.13333 0 -0.24 4.13333 0 -0.26 4.13333 0 -0.28 4.13333 0 -0.3 4.13333 0 -0.32 4.13333 0 -0.34 4.13333 0 -0.36 4.13333 0 -0.38 4.13333 0 -0.4 4.13333 0 -0.42 4.13333 0 -0.44 4.13333 0 -0.46 4.13333 0 -0.48 4.13333 0 -0.5 4.13333 0 -0.52 4.13333 0 -0.54 4.13333 0 -0.56 4.13333 0 -0.58 4.13333 0 -0.6 4.13333 0 -0.62 4.13333 0 -0.64 4.13333 0 -0.66 4.13333 0 -0.68 4.13333 0 -0.7 4.13333 0 -0.72 4.13333 0 -0.74 4.13333 0 -0.76 4.13333 0 -0.78 4.13333 0 -0.8 4.13333 0 -0.82 4.13333 0 -0.84 4.13333 0 -0.86 4.13333 0 -0.88 4.13333 0 -0.9 4.13333 0 -0.92 4.13333 0 -0.94 4.13333 0 -0.96 4.13333 0 -0.98 4.13333 0 0.98 4.2 0 0.96 4.2 0 0.94 4.2 0 0.92 4.2 0 0.9 4.2 0 0.88 4.2 0 0.86 4.2 0 0.84 4.2 0 0.82 4.2 0 0.8 4.2 0 0.78 4.2 0 0.76 4.2 0 0.74 4.2 0 0.72 4.2 0 0.7 4.2 0 0.68 4.2 0 0.66 4.2 0 0.64 4.2 0 0.62 4.2 0 0.6 4.2 0 0.58 4.2 0 0.56 4.2 0 0.54 4.2 0 0.52 4.2 0 0.5 4.2 0 0.48 4.2 0 0.46 4.2 0 0.44 4.2 0 0.42 4.2 0 0.4 4.2 0 0.38 4.2 0 0.36 4.2 0 0.34 4.2 0 0.32 4.2 0 0.3 4.2 0 0.28 4.2 0 0.26 4.2 0 0.24 4.2 0 0.22 4.2 0 0.2 4.2 0 0.18 4.2 0 0.16 4.2 0 0.14 4.2 0 0.12 4.2 0 0.1 4.2 0 0.08 4.2 0 0.06 4.2 0 0.04 4.2 0 0.02 4.2 0 5.55112e-17 4.2 0 -0.02 4.2 0 -0.04 4.2 0 -0.06 4.2 0 -0.08 4.2 0 -0.1 4.2 0 -0.12 4.2 0 -0.14 4.2 0 -0.16 4.2 0 -0.18 4.2 0 -0.2 4.2 0 -0.22 4.2 0 -0.24 4.2 0 -0.26 4.2 0 -0.28 4.2 0 -0.3 4.2 0 -0.32 4.2 0 -0.34 4.2 0 -0.36 4.2 0 -0.38 4.2 0 -0.4 4.2 0 -0.42 4.2 0 -0.44 4.2 0 -0.46 4.2 0 -0.48 4.2 0 -0.5 4.2 0 -0.52 4.2 0 -0.54 4.2 0 -0.56 4.2 0 -0.58 4.2 0 -0.6 4.2 0 -0.62 4.2 0 -0.64 4.2 0 -0.66 4.2 0 -0.68 4.2 0 -0.7 4.2 0 -0.72 4.2 0 -0.74 4.2 0 -0.76 4.2 0 -0.78 4.2 0 -0.8 4.2 0 -0.82 4.2 0 -0.84 4.2 0 -0.86 4.2 0 -0.88 4.2 0 -0.9 4.2 0 -0.92 4.2 0 -0.94 4.2 0 -0.96 4.2 0 -0.98 4.2 0 0.98 4.26667 0 0.96 4.26667 0 0.94 4.26667 0 0.92 4.26667 0 0.9 4.26667 0 0.88 4.26667 0 0.86 4.26667 0 0.84 4.26667 0 0.82 4.26667 0 0.8 4.26667 0 0.78 4.26667 0 0.76 4.26667 0 0.74 4.26667 0 0.72 4.26667 0 0.7 4.26667 0 0.68 4.26667 0 0.66 4.26667 0 0.64 4.26667 0 0.62 4.26667 0 0.6 4.26667 0 0.58 4.26667 0 0.56 4.26667 0 0.54 4.26667 0 0.52 4.26667 0 0.5 4.26667 0 0.48 4.26667 0 0.46 4.26667 0 0.44 4.26667 0 0.42 4.26667 0 0.4 4.26667 0 0.38 4.26667 0 0.36 4.26667 0 0.34 4.26667 0 0.32 4.26667 0 0.3 4.26667 0 0.28 4.26667 0 0.26 4.26667 0 0.24 4.26667 0 0.22 4.26667 0 0.2 4.26667 0 0.18 4.26667 0 0.16 4.26667 0 0.14 4.26667 0 0.12 4.26667 0 0.1 4.26667 0 0.08 4.26667 0 0.06 4.26667 0 0.04 4.26667 0 0.02 4.26667 0 5.55112e-17 4.26667 0 -0.02 4.26667 0 -0.04 4.26667 0 -0.06 4.26667 0 -0.08 4.26667 0 -0.1 4.26667 0 -0.12 4.26667 0 -0.14 4.26667 0 -0.16 4.26667 0 -0.18 4.26667 0 -0.2 4.26667 0 -0.22 4.26667 0 -0.24 4.26667 0 -0.26 4.26667 0 -0.28 4.26667 0 -0.3 4.26667 0 -0.32 4.26667 0 -0.34 4.26667 0 -0.36 4.26667 0 -0.38 4.26667 0 -0.4 4.26667 0 -0.42 4.26667 0 -0.44 4.26667 0 -0.46 4.26667 0 -0.48 4.26667 0 -0.5 4.26667 0 -0.52 4.26667 0 -0.54 4.26667 0 -0.56 4.26667 0 -0.58 4.26667 0 -0.6 4.26667 0 -0.62 4.26667 0 -0.64 4.26667 0 -0.66 4.26667 0 -0.68 4.26667 0 -0.7 4.26667 0 -0.72 4.26667 0 -0.74 4.26667 0 -0.76 4.26667 0 -0.78 4.26667 0 -0.8 4.26667 0 -0.82 4.26667 0 -0.84 4.26667 0 -0.86 4.26667 0 -0.88 4.26667 0 -0.9 4.26667 0 -0.92 4.26667 0 -0.94 4.26667 0 -0.96 4.26667 0 -0.98 4.26667 0 0.98 4.33333 0 0.96 4.33333 0 0.94 4.33333 0 0.92 4.33333 0 0.9 4.33333 0 0.88 4.33333 0 0.86 4.33333 0 0.84 4.33333 0 0.82 4.33333 0 0.8 4.33333 0 0.78 4.33333 0 0.76 4.33333 0 0.74 4.33333 0 0.72 4.33333 0 0.7 4.33333 0 0.68 4.33333 0 0.66 4.33333 0 0.64 4.33333 0 0.62 4.33333 0 0.6 4.33333 0 0.58 4.33333 0 0.56 4.33333 0 0.54 4.33333 0 0.52 4.33333 0 0.5 4.33333 0 0.48 4.33333 0 0.46 4.33333 0 0.44 4.33333 0 0.42 4.33333 0 0.4 4.33333 0 0.38 4.33333 0 0.36 4.33333 0 0.34 4.33333 0 0.32 4.33333 0 0.3 4.33333 0 0.28 4.33333 0 0.26 4.33333 0 0.24 4.33333 0 0.22 4.33333 0 0.2 4.33333 0 0.18 4.33333 0 0.16 4.33333 0 0.14 4.33333 0 0.12 4.33333 0 0.1 4.33333 0 0.08 4.33333 0 0.06 4.33333 0 0.04 4.33333 0 0.02 4.33333 0 5.55112e-17 4.33333 0 -0.02 4.33333 0 -0.04 4.33333 0 -0.06 4.33333 0 -0.08 4.33333 0 -0.1 4.33333 0 -0.12 4.33333 0 -0.14 4.33333 0 -0.16 4.33333 0 -0.18 4.33333 0 -0.2 4.33333 0 -0.22 4.33333 0 -0.24 4.33333 0 -0.26 4.33333 0 -0.28 4.33333 0 -0.3 4.33333 0 -0.32 4.33333 0 -0.34 4.33333 0 -0.36 4.33333 0 -0.38 4.33333 0 -0.4 4.33333 0 -0.42 4.33333 0 -0.44 4.33333 0 -0.46 4.33333 0 -0.48 4.33333 0 -0.5 4.33333 0 -0.52 4.33333 0 -0.54 4.33333 0 -0.56 4.33333 0 -0.58 4.33333 0 -0.6 4.33333 0 -0.62 4.33333 0 -0.64 4.33333 0 -0.66 4.33333 0 -0.68 4.33333 0 -0.7 4.33333 0 -0.72 4.33333 0 -0.74 4.33333 0 -0.76 4.33333 0 -0.78 4.33333 0 -0.8 4.33333 0 -0.82 4.33333 0 -0.84 4.33333 0 -0.86 4.33333 0 -0.88 4.33333 0 -0.9 4.33333 0 -0.92 4.33333 0 -0.94 4.33333 0 -0.96 4.33333 0 -0.98 4.33333 0 0.98 4.4 0 0.96 4.4 0 0.94 4.4 0 0.92 4.4 0 0.9 4.4 0 0.88 4.4 0 0.86 4.4 0 0.84 4.4 0 0.82 4.4 0 0.8 4.4 0 0.78 4.4 0 0.76 4.4 0 0.74 4.4 0 0.72 4.4 0 0.7 4.4 0 0.68 4.4 0 0.66 4.4 0 0.64 4.4 0 0.62 4.4 0 0.6 4.4 0 0.58 4.4 0 0.56 4.4 0 0.54 4.4 0 0.52 4.4 0 0.5 4.4 0 0.48 4.4 0 0.46 4.4 0 0.44 4.4 0 0.42 4.4 0 0.4 4.4 0 0.38 4.4 0 0.36 4.4 0 0.34 4.4 0 0.32 4.4 0 0.3 4.4 0 0.28 4.4 0 0.26 4.4 0 0.24 4.4 0 0.22 4.4 0 0.2 4.4 0 0.18 4.4 0 0.16 4.4 0 0.14 4.4 0 0.12 4.4 0 0.1 4.4 0 0.08 4.4 0 0.06 4.4 0 0.04 4.4 0 0.02 4.4 0 0 4.4 0 -0.02 4.4 0 -0.04 4.4 0 -0.06 4.4 0 -0.08 4.4 0 -0.1 4.4 0 -0.12 4.4 0 -0.14 4.4 0 -0.16 4.4 0 -0.18 4.4 0 -0.2 4.4 0 -0.22 4.4 0 -0.24 4.4 0 -0.26 4.4 0 -0.28 4.4 0 -0.3 4.4 0 -0.32 4.4 0 -0.34 4.4 0 -0.36 4.4 0 -0.38 4.4 0 -0.4 4.4 0 -0.42 4.4 0 -0.44 4.4 0 -0.46 4.4 0 -0.48 4.4 0 -0.5 4.4 0 -0.52 4.4 0 -0.54 4.4 0 -0.56 4.4 0 -0.58 4.4 0 -0.6 4.4 0 -0.62 4.4 0 -0.64 4.4 0 -0.66 4.4 0 -0.68 4.4 0 -0.7 4.4 0 -0.72 4.4 0 -0.74 4.4 0 -0.76 4.4 0 -0.78 4.4 0 -0.8 4.4 0 -0.82 4.4 0 -0.84 4.4 0 -0.86 4.4 0 -0.88 4.4 0 -0.9 4.4 0 -0.92 4.4 0 -0.94 4.4 0 -0.96 4.4 0 -0.98 4.4 0 0.98 4.46667 0 0.96 4.46667 0 0.94 4.46667 0 0.92 4.46667 0 0.9 4.46667 0 0.88 4.46667 0 0.86 4.46667 0 0.84 4.46667 0 0.82 4.46667 0 0.8 4.46667 0 0.78 4.46667 0 0.76 4.46667 0 0.74 4.46667 0 0.72 4.46667 0 0.7 4.46667 0 0.68 4.46667 0 0.66 4.46667 0 0.64 4.46667 0 0.62 4.46667 0 0.6 4.46667 0 0.58 4.46667 0 0.56 4.46667 0 0.54 4.46667 0 0.52 4.46667 0 0.5 4.46667 0 0.48 4.46667 0 0.46 4.46667 0 0.44 4.46667 0 0.42 4.46667 0 0.4 4.46667 0 0.38 4.46667 0 0.36 4.46667 0 0.34 4.46667 0 0.32 4.46667 0 0.3 4.46667 0 0.28 4.46667 0 0.26 4.46667 0 0.24 4.46667 0 0.22 4.46667 0 0.2 4.46667 0 0.18 4.46667 0 0.16 4.46667 0 0.14 4.46667 0 0.12 4.46667 0 0.1 4.46667 0 0.08 4.46667 0 0.06 4.46667 0 0.04 4.46667 0 0.02 4.46667 0 0 4.46667 0 -0.02 4.46667 0 -0.04 4.46667 0 -0.06 4.46667 0 -0.08 4.46667 0 -0.1 4.46667 0 -0.12 4.46667 0 -0.14 4.46667 0 -0.16 4.46667 0 -0.18 4.46667 0 -0.2 4.46667 0 -0.22 4.46667 0 -0.24 4.46667 0 -0.26 4.46667 0 -0.28 4.46667 0 -0.3 4.46667 0 -0.32 4.46667 0 -0.34 4.46667 0 -0.36 4.46667 0 -0.38 4.46667 0 -0.4 4.46667 0 -0.42 4.46667 0 -0.44 4.46667 0 -0.46 4.46667 0 -0.48 4.46667 0 -0.5 4.46667 0 -0.52 4.46667 0 -0.54 4.46667 0 -0.56 4.46667 0 -0.58 4.46667 0 -0.6 4.46667 0 -0.62 4.46667 0 -0.64 4.46667 0 -0.66 4.46667 0 -0.68 4.46667 0 -0.7 4.46667 0 -0.72 4.46667 0 -0.74 4.46667 0 -0.76 4.46667 0 -0.78 4.46667 0 -0.8 4.46667 0 -0.82 4.46667 0 -0.84 4.46667 0 -0.86 4.46667 0 -0.88 4.46667 0 -0.9 4.46667 0 -0.92 4.46667 0 -0.94 4.46667 0 -0.96 4.46667 0 -0.98 4.46667 0 0.98 4.53333 0 0.96 4.53333 0 0.94 4.53333 0 0.92 4.53333 0 0.9 4.53333 0 0.88 4.53333 0 0.86 4.53333 0 0.84 4.53333 0 0.82 4.53333 0 0.8 4.53333 0 0.78 4.53333 0 0.76 4.53333 0 0.74 4.53333 0 0.72 4.53333 0 0.7 4.53333 0 0.68 4.53333 0 0.66 4.53333 0 0.64 4.53333 0 0.62 4.53333 0 0.6 4.53333 0 0.58 4.53333 0 0.56 4.53333 0 0.54 4.53333 0 0.52 4.53333 0 0.5 4.53333 0 0.48 4.53333 0 0.46 4.53333 0 0.44 4.53333 0 0.42 4.53333 0 0.4 4.53333 0 0.38 4.53333 0 0.36 4.53333 0 0.34 4.53333 0 0.32 4.53333 0 0.3 4.53333 0 0.28 4.53333 0 0.26 4.53333 0 0.24 4.53333 0 0.22 4.53333 0 0.2 4.53333 0 0.18 4.53333 0 0.16 4.53333 0 0.14 4.53333 0 0.12 4.53333 0 0.1 4.53333 0 0.08 4.53333 0 0.06 4.53333 0 0.04 4.53333 0 0.02 4.53333 0 0 4.53333 0 -0.02 4.53333 0 -0.04 4.53333 0 -0.06 4.53333 0 -0.08 4.53333 0 -0.1 4.53333 0 -0.12 4.53333 0 -0.14 4.53333 0 -0.16 4.53333 0 -0.18 4.53333 0 -0.2 4.53333 0 -0.22 4.53333 0 -0.24 4.53333 0 -0.26 4.53333 0 -0.28 4.53333 0 -0.3 4.53333 0 -0.32 4.53333 0 -0.34 4.53333 0 -0.36 4.53333 0 -0.38 4.53333 0 -0.4 4.53333 0 -0.42 4.53333 0 -0.44 4.53333 0 -0.46 4.53333 0 -0.48 4.53333 0 -0.5 4.53333 0 -0.52 4.53333 0 -0.54 4.53333 0 -0.56 4.53333 0 -0.58 4.53333 0 -0.6 4.53333 0 -0.62 4.53333 0 -0.64 4.53333 0 -0.66 4.53333 0 -0.68 4.53333 0 -0.7 4.53333 0 -0.72 4.53333 0 -0.74 4.53333 0 -0.76 4.53333 0 -0.78 4.53333 0 -0.8 4.53333 0 -0.82 4.53333 0 -0.84 4.53333 0 -0.86 4.53333 0 -0.88 4.53333 0 -0.9 4.53333 0 -0.92 4.53333 0 -0.94 4.53333 0 -0.96 4.53333 0 -0.98 4.53333 0 0.98 4.6 0 0.96 4.6 0 0.94 4.6 0 0.92 4.6 0 0.9 4.6 0 0.88 4.6 0 0.86 4.6 0 0.84 4.6 0 0.82 4.6 0 0.8 4.6 0 0.78 4.6 0 0.76 4.6 0 0.74 4.6 0 0.72 4.6 0 0.7 4.6 0 0.68 4.6 0 0.66 4.6 0 0.64 4.6 0 0.62 4.6 0 0.6 4.6 0 0.58 4.6 0 0.56 4.6 0 0.54 4.6 0 0.52 4.6 0 0.5 4.6 0 0.48 4.6 0 0.46 4.6 0 0.44 4.6 0 0.42 4.6 0 0.4 4.6 0 0.38 4.6 0 0.36 4.6 0 0.34 4.6 0 0.32 4.6 0 0.3 4.6 0 0.28 4.6 0 0.26 4.6 0 0.24 4.6 0 0.22 4.6 0 0.2 4.6 0 0.18 4.6 0 0.16 4.6 0 0.14 4.6 0 0.12 4.6 0 0.1 4.6 0 0.08 4.6 0 0.06 4.6 0 0.04 4.6 0 0.02 4.6 0 0 4.6 0 -0.02 4.6 0 -0.04 4.6 0 -0.06 4.6 0 -0.08 4.6 0 -0.1 4.6 0 -0.12 4.6 0 -0.14 4.6 0 -0.16 4.6 0 -0.18 4.6 0 -0.2 4.6 0 -0.22 4.6 0 -0.24 4.6 0 -0.26 4.6 0 -0.28 4.6 0 -0.3 4.6 0 -0.32 4.6 0 -0.34 4.6 0 -0.36 4.6 0 -0.38 4.6 0 -0.4 4.6 0 -0.42 4.6 0 -0.44 4.6 0 -0.46 4.6 0 -0.48 4.6 0 -0.5 4.6 0 -0.52 4.6 0 -0.54 4.6 0 -0.56 4.6 0 -0.58 4.6 0 -0.6 4.6 0 -0.62 4.6 0 -0.64 4.6 0 -0.66 4.6 0 -0.68 4.6 0 -0.7 4.6 0 -0.72 4.6 0 -0.74 4.6 0 -0.76 4.6 0 -0.78 4.6 0 -0.8 4.6 0 -0.82 4.6 0 -0.84 4.6 0 -0.86 4.6 0 -0.88 4.6 0 -0.9 4.6 0 -0.92 4.6 0 -0.94 4.6 0 -0.96 4.6 0 -0.98 4.6 0 0.98 4.66667 0 0.96 4.66667 0 0.94 4.66667 0 0.92 4.66667 0 0.9 4.66667 0 0.88 4.66667 0 0.86 4.66667 0 0.84 4.66667 0 0.82 4.66667 0 0.8 4.66667 0 0.78 4.66667 0 0.76 4.66667 0 0.74 4.66667 0 0.72 4.66667 0 0.7 4.66667 0 0.68 4.66667 0 0.66 4.66667 0 0.64 4.66667 0 0.62 4.66667 0 0.6 4.66667 0 0.58 4.66667 0 0.56 4.66667 0 0.54 4.66667 0 0.52 4.66667 0 0.5 4.66667 0 0.48 4.66667 0 0.46 4.66667 0 0.44 4.66667 0 0.42 4.66667 0 0.4 4.66667 0 0.38 4.66667 0 0.36 4.66667 0 0.34 4.66667 0 0.32 4.66667 0 0.3 4.66667 0 0.28 4.66667 0 0.26 4.66667 0 0.24 4.66667 0 0.22 4.66667 0 0.2 4.66667 0 0.18 4.66667 0 0.16 4.66667 0 0.14 4.66667 0 0.12 4.66667 0 0.1 4.66667 0 0.08 4.66667 0 0.06 4.66667 0 0.04 4.66667 0 0.02 4.66667 0 0 4.66667 0 -0.02 4.66667 0 -0.04 4.66667 0 -0.06 4.66667 0 -0.08 4.66667 0 -0.1 4.66667 0 -0.12 4.66667 0 -0.14 4.66667 0 -0.16 4.66667 0 -0.18 4.66667 0 -0.2 4.66667 0 -0.22 4.66667 0 -0.24 4.66667 0 -0.26 4.66667 0 -0.28 4.66667 0 -0.3 4.66667 0 -0.32 4.66667 0 -0.34 4.66667 0 -0.36 4.66667 0 -0.38 4.66667 0 -0.4 4.66667 0 -0.42 4.66667 0 -0.44 4.66667 0 -0.46 4.66667 0 -0.48 4.66667 0 -0.5 4.66667 0 -0.52 4.66667 0 -0.54 4.66667 0 -0.56 4.66667 0 -0.58 4.66667 0 -0.6 4.66667 0 -0.62 4.66667 0 -0.64 4.66667 0 -0.66 4.66667 0 -0.68 4.66667 0 -0.7 4.66667 0 -0.72 4.66667 0 -0.74 4.66667 0 -0.76 4.66667 0 -0.78 4.66667 0 -0.8 4.66667 0 -0.82 4.66667 0 -0.84 4.66667 0 -0.86 4.66667 0 -0.88 4.66667 0 -0.9 4.66667 0 -0.92 4.66667 0 -0.94 4.66667 0 -0.96 4.66667 0 -0.98 4.66667 0 0.98 4.73333 0 0.96 4.73333 0 0.94 4.73333 0 0.92 4.73333 0 0.9 4.73333 0 0.88 4.73333 0 0.86 4.73333 0 0.84 4.73333 0 0.82 4.73333 0 0.8 4.73333 0 0.78 4.73333 0 0.76 4.73333 0 0.74 4.73333 0 0.72 4.73333 0 0.7 4.73333 0 0.68 4.73333 0 0.66 4.73333 0 0.64 4.73333 0 0.62 4.73333 0 0.6 4.73333 0 0.58 4.73333 0 0.56 4.73333 0 0.54 4.73333 0 0.52 4.73333 0 0.5 4.73333 0 0.48 4.73333 0 0.46 4.73333 0 0.44 4.73333 0 0.42 4.73333 0 0.4 4.73333 0 0.38 4.73333 0 0.36 4.73333 0 0.34 4.73333 0 0.32 4.73333 0 0.3 4.73333 0 0.28 4.73333 0 0.26 4.73333 0 0.24 4.73333 0 0.22 4.73333 0 0.2 4.73333 0 0.18 4.73333 0 0.16 4.73333 0 0.14 4.73333 0 0.12 4.73333 0 0.1 4.73333 0 0.08 4.73333 0 0.06 4.73333 0 0.04 4.73333 0 0.02 4.73333 0 0 4.73333 0 -0.02 4.73333 0 -0.04 4.73333 0 -0.06 4.73333 0 -0.08 4.73333 0 -0.1 4.73333 0 -0.12 4.73333 0 -0.14 4.73333 0 -0.16 4.73333 0 -0.18 4.73333 0 -0.2 4.73333 0 -0.22 4.73333 0 -0.24 4.73333 0 -0.26 4.73333 0 -0.28 4.73333 0 -0.3 4.73333 0 -0.32 4.73333 0 -0.34 4.73333 0 -0.36 4.73333 0 -0.38 4.73333 0 -0.4 4.73333 0 -0.42 4.73333 0 -0.44 4.73333 0 -0.46 4.73333 0 -0.48 4.73333 0 -0.5 4.73333 0 -0.52 4.73333 0 -0.54 4.73333 0 -0.56 4.73333 0 -0.58 4.73333 0 -0.6 4.73333 0 -0.62 4.73333 0 -0.64 4.73333 0 -0.66 4.73333 0 -0.68 4.73333 0 -0.7 4.73333 0 -0.72 4.73333 0 -0.74 4.73333 0 -0.76 4.73333 0 -0.78 4.73333 0 -0.8 4.73333 0 -0.82 4.73333 0 -0.84 4.73333 0 -0.86 4.73333 0 -0.88 4.73333 0 -0.9 4.73333 0 -0.92 4.73333 0 -0.94 4.73333 0 -0.96 4.73333 0 -0.98 4.73333 0 0.98 4.8 0 0.96 4.8 0 0.94 4.8 0 0.92 4.8 0 0.9 4.8 0 0.88 4.8 0 0.86 4.8 0 0.84 4.8 0 0.82 4.8 0 0.8 4.8 0 0.78 4.8 0 0.76 4.8 0 0.74 4.8 0 0.72 4.8 0 0.7 4.8 0 0.68 4.8 0 0.66 4.8 0 0.64 4.8 0 0.62 4.8 0 0.6 4.8 0 0.58 4.8 0 0.56 4.8 0 0.54 4.8 0 0.52 4.8 0 0.5 4.8 0 0.48 4.8 0 0.46 4.8 0 0.44 4.8 0 0.42 4.8 0 0.4 4.8 0 0.38 4.8 0 0.36 4.8 0 0.34 4.8 0 0.32 4.8 0 0.3 4.8 0 0.28 4.8 0 0.26 4.8 0 0.24 4.8 0 0.22 4.8 0 0.2 4.8 0 0.18 4.8 0 0.16 4.8 0 0.14 4.8 0 0.12 4.8 0 0.1 4.8 0 0.08 4.8 0 0.06 4.8 0 0.04 4.8 0 0.02 4.8 0 0 4.8 0 -0.02 4.8 0 -0.04 4.8 0 -0.06 4.8 0 -0.08 4.8 0 -0.1 4.8 0 -0.12 4.8 0 -0.14 4.8 0 -0.16 4.8 0 -0.18 4.8 0 -0.2 4.8 0 -0.22 4.8 0 -0.24 4.8 0 -0.26 4.8 0 -0.28 4.8 0 -0.3 4.8 0 -0.32 4.8 0 -0.34 4.8 0 -0.36 4.8 0 -0.38 4.8 0 -0.4 4.8 0 -0.42 4.8 0 -0.44 4.8 0 -0.46 4.8 0 -0.48 4.8 0 -0.5 4.8 0 -0.52 4.8 0 -0.54 4.8 0 -0.56 4.8 0 -0.58 4.8 0 -0.6 4.8 0 -0.62 4.8 0 -0.64 4.8 0 -0.66 4.8 0 -0.68 4.8 0 -0.7 4.8 0 -0.72 4.8 0 -0.74 4.8 0 -0.76 4.8 0 -0.78 4.8 0 -0.8 4.8 0 -0.82 4.8 0 -0.84 4.8 0 -0.86 4.8 0 -0.88 4.8 0 -0.9 4.8 0 -0.92 4.8 0 -0.94 4.8 0 -0.96 4.8 0 -0.98 4.8 0 0.98 4.86667 0 0.96 4.86667 0 0.94 4.86667 0 0.92 4.86667 0 0.9 4.86667 0 0.88 4.86667 0 0.86 4.86667 0 0.84 4.86667 0 0.82 4.86667 0 0.8 4.86667 0 0.78 4.86667 0 0.76 4.86667 0 0.74 4.86667 0 0.72 4.86667 0 0.7 4.86667 0 0.68 4.86667 0 0.66 4.86667 0 0.64 4.86667 0 0.62 4.86667 0 0.6 4.86667 0 0.58 4.86667 0 0.56 4.86667 0 0.54 4.86667 0 0.52 4.86667 0 0.5 4.86667 0 0.48 4.86667 0 0.46 4.86667 0 0.44 4.86667 0 0.42 4.86667 0 0.4 4.86667 0 0.38 4.86667 0 0.36 4.86667 0 0.34 4.86667 0 0.32 4.86667 0 0.3 4.86667 0 0.28 4.86667 0 0.26 4.86667 0 0.24 4.86667 0 0.22 4.86667 0 0.2 4.86667 0 0.18 4.86667 0 0.16 4.86667 0 0.14 4.86667 0 0.12 4.86667 0 0.1 4.86667 0 0.08 4.86667 0 0.06 4.86667 0 0.04 4.86667 0 0.02 4.86667 0 0 4.86667 0 -0.02 4.86667 0 -0.04 4.86667 0 -0.06 4.86667 0 -0.08 4.86667 0 -0.1 4.86667 0 -0.12 4.86667 0 -0.14 4.86667 0 -0.16 4.86667 0 -0.18 4.86667 0 -0.2 4.86667 0 -0.22 4.86667 0 -0.24 4.86667 0 -0.26 4.86667 0 -0.28 4.86667 0 -0.3 4.86667 0 -0.32 4.86667 0 -0.34 4.86667 0 -0.36 4.86667 0 -0.38 4.86667 0 -0.4 4.86667 0 -0.42 4.86667 0 -0.44 4.86667 0 -0.46 4.86667 0 -0.48 4.86667 0 -0.5 4.86667 0 -0.52 4.86667 0 -0.54 4.86667 0 -0.56 4.86667 0 -0.58 4.86667 0 -0.6 4.86667 0 -0.62 4.86667 0 -0.64 4.86667 0 -0.66 4.86667 0 -0.68 4.86667 0 -0.7 4.86667 0 -0.72 4.86667 0 -0.74 4.86667 0 -0.76 4.86667 0 -0.78 4.86667 0 -0.8 4.86667 0 -0.82 4.86667 0 -0.84 4.86667 0 -0.86 4.86667 0 -0.88 4.86667 0 -0.9 4.86667 0 -0.92 4.86667 0 -0.94 4.86667 0 -0.96 4.86667 0 -0.98 4.86667 0 0.98 4.93333 0 0.96 4.93333 0 0.94 4.93333 0 0.92 4.93333 0 0.9 4.93333 0 0.88 4.93333 0 0.86 4.93333 0 0.84 4.93333 0 0.82 4.93333 0 0.8 4.93333 0 0.78 4.93333 0 0.76 4.93333 0 0.74 4.93333 0 0.72 4.93333 0 0.7 4.93333 0 0.68 4.93333 0 0.66 4.93333 0 0.64 4.93333 0 0.62 4.93333 0 0.6 4.93333 0 0.58 4.93333 0 0.56 4.93333 0 0.54 4.93333 0 0.52 4.93333 0 0.5 4.93333 0 0.48 4.93333 0 0.46 4.93333 0 0.44 4.93333 0 0.42 4.93333 0 0.4 4.93333 0 0.38 4.93333 0 0.36 4.93333 0 0.34 4.93333 0 0.32 4.93333 0 0.3 4.93333 0 0.28 4.93333 0 0.26 4.93333 0 0.24 4.93333 0 0.22 4.93333 0 0.2 4.93333 0 0.18 4.93333 0 0.16 4.93333 0 0.14 4.93333 0 0.12 4.93333 0 0.1 4.93333 0 0.08 4.93333 0 0.06 4.93333 0 0.04 4.93333 0 0.02 4.93333 0 0 4.93333 0 -0.02 4.93333 0 -0.04 4.93333 0 -0.06 4.93333 0 -0.08 4.93333 0 -0.1 4.93333 0 -0.12 4.93333 0 -0.14 4.93333 0 -0.16 4.93333 0 -0.18 4.93333 0 -0.2 4.93333 0 -0.22 4.93333 0 -0.24 4.93333 0 -0.26 4.93333 0 -0.28 4.93333 0 -0.3 4.93333 0 -0.32 4.93333 0 -0.34 4.93333 0 -0.36 4.93333 0 -0.38 4.93333 0 -0.4 4.93333 0 -0.42 4.93333 0 -0.44 4.93333 0 -0.46 4.93333 0 -0.48 4.93333 0 -0.5 4.93333 0 -0.52 4.93333 0 -0.54 4.93333 0 -0.56 4.93333 0 -0.58 4.93333 0 -0.6 4.93333 0 -0.62 4.93333 0 -0.64 4.93333 0 -0.66 4.93333 0 -0.68 4.93333 0 -0.7 4.93333 0 -0.72 4.93333 0 -0.74 4.93333 0 -0.76 4.93333 0 -0.78 4.93333 0 -0.8 4.93333 0 -0.82 4.93333 0 -0.84 4.93333 0 -0.86 4.93333 0 -0.88 4.93333 0 -0.9 4.93333 0 -0.92 4.93333 0 -0.94 4.93333 0 -0.96 4.93333 0 -0.98 4.93333 0 0.98 5 0 0.96 5 0 0.94 5 0 0.92 5 0 0.9 5 0 0.88 5 0 0.86 5 0 0.84 5 0 0.82 5 0 0.8 5 0 0.78 5 0 0.76 5 0 0.74 5 0 0.72 5 0 0.7 5 0 0.68 5 0 0.66 5 0 0.64 5 0 0.62 5 0 0.6 5 0 0.58 5 0 0.56 5 0 0.54 5 0 0.52 5 0 0.5 5 0 0.48 5 0 0.46 5 0 0.44 5 0 0.42 5 0 0.4 5 0 0.38 5 0 0.36 5 0 0.34 5 0 0.32 5 0 0.3 5 0 0.28 5 0 0.26 5 0 0.24 5 0 0.22 5 0 0.2 5 0 0.18 5 0 0.16 5 0 0.14 5 0 0.12 5 0 0.1 5 0 0.08 5 0 0.06 5 0 0.04 5 0 0.02 5 0 0 5 0 -0.02 5 0 -0.04 5 0 -0.06 5 0 -0.08 5 0 -0.1 5 0 -0.12 5 0 -0.14 5 0 -0.16 5 0 -0.18 5 0 -0.2 5 0 -0.22 5 0 -0.24 5 0 -0.26 5 0 -0.28 5 0 -0.3 5 0 -0.32 5 0 -0.34 5 0 -0.36 5 0 -0.38 5 0 -0.4 5 0 -0.42 5 0 -0.44 5 0 -0.46 5 0 -0.48 5 0 -0.5 5 0 -0.52 5 0 -0.54 5 0 -0.56 5 0 -0.58 5 0 -0.6 5 0 -0.62 5 0 -0.64 5 0 -0.66 5 0 -0.68 5 0 -0.7 5 0 -0.72 5 0 -0.74 5 0 -0.76 5 0 -0.78 5 0 -0.8 5 0 -0.82 5 0 -0.84 5 0 -0.86 5 0 -0.88 5 0 -0.9 5 0 -0.92 5 0 -0.94 5 0 -0.96 5 0 -0.98 5 0 0.98 5.06667 0 0.96 5.06667 0 0.94 5.06667 0 0.92 5.06667 0 0.9 5.06667 0 0.88 5.06667 0 0.86 5.06667 0 0.84 5.06667 0 0.82 5.06667 0 0.8 5.06667 0 0.78 5.06667 0 0.76 5.06667 0 0.74 5.06667 0 0.72 5.06667 0 0.7 5.06667 0 0.68 5.06667 0 0.66 5.06667 0 0.64 5.06667 0 0.62 5.06667 0 0.6 5.06667 0 0.58 5.06667 0 0.56 5.06667 0 0.54 5.06667 0 0.52 5.06667 0 0.5 5.06667 0 0.48 5.06667 0 0.46 5.06667 0 0.44 5.06667 0 0.42 5.06667 0 0.4 5.06667 0 0.38 5.06667 0 0.36 5.06667 0 0.34 5.06667 0 0.32 5.06667 0 0.3 5.06667 0 0.28 5.06667 0 0.26 5.06667 0 0.24 5.06667 0 0.22 5.06667 0 0.2 5.06667 0 0.18 5.06667 0 0.16 5.06667 0 0.14 5.06667 0 0.12 5.06667 0 0.1 5.06667 0 0.08 5.06667 0 0.06 5.06667 0 0.04 5.06667 0 0.02 5.06667 0 0 5.06667 0 -0.02 5.06667 0 -0.04 5.06667 0 -0.06 5.06667 0 -0.08 5.06667 0 -0.1 5.06667 0 -0.12 5.06667 0 -0.14 5.06667 0 -0.16 5.06667 0 -0.18 5.06667 0 -0.2 5.06667 0 -0.22 5.06667 0 -0.24 5.06667 0 -0.26 5.06667 0 -0.28 5.06667 0 -0.3 5.06667 0 -0.32 5.06667 0 -0.34 5.06667 0 -0.36 5.06667 0 -0.38 5.06667 0 -0.4 5.06667 0 -0.42 5.06667 0 -0.44 5.06667 0 -0.46 5.06667 0 -0.48 5.06667 0 -0.5 5.06667 0 -0.52 5.06667 0 -0.54 5.06667 0 -0.56 5.06667 0 -0.58 5.06667 0 -0.6 5.06667 0 -0.62 5.06667 0 -0.64 5.06667 0 -0.66 5.06667 0 -0.68 5.06667 0 -0.7 5.06667 0 -0.72 5.06667 0 -0.74 5.06667 0 -0.76 5.06667 0 -0.78 5.06667 0 -0.8 5.06667 0 -0.82 5.06667 0 -0.84 5.06667 0 -0.86 5.06667 0 -0.88 5.06667 0 -0.9 5.06667 0 -0.92 5.06667 0 -0.94 5.06667 0 -0.96 5.06667 0 -0.98 5.06667 0 0.98 5.13333 0 0.96 5.13333 0 0.94 5.13333 0 0.92 5.13333 0 0.9 5.13333 0 0.88 5.13333 0 0.86 5.13333 0 0.84 5.13333 0 0.82 5.13333 0 0.8 5.13333 0 0.78 5.13333 0 0.76 5.13333 0 0.74 5.13333 0 0.72 5.13333 0 0.7 5.13333 0 0.68 5.13333 0 0.66 5.13333 0 0.64 5.13333 0 0.62 5.13333 0 0.6 5.13333 0 0.58 5.13333 0 0.56 5.13333 0 0.54 5.13333 0 0.52 5.13333 0 0.5 5.13333 0 0.48 5.13333 0 0.46 5.13333 0 0.44 5.13333 0 0.42 5.13333 0 0.4 5.13333 0 0.38 5.13333 0 0.36 5.13333 0 0.34 5.13333 0 0.32 5.13333 0 0.3 5.13333 0 0.28 5.13333 0 0.26 5.13333 0 0.24 5.13333 0 0.22 5.13333 0 0.2 5.13333 0 0.18 5.13333 0 0.16 5.13333 0 0.14 5.13333 0 0.12 5.13333 0 0.1 5.13333 0 0.08 5.13333 0 0.06 5.13333 0 0.04 5.13333 0 0.02 5.13333 0 0 5.13333 0 -0.02 5.13333 0 -0.04 5.13333 0 -0.06 5.13333 0 -0.08 5.13333 0 -0.1 5.13333 0 -0.12 5.13333 0 -0.14 5.13333 0 -0.16 5.13333 0 -0.18 5.13333 0 -0.2 5.13333 0 -0.22 5.13333 0 -0.24 5.13333 0 -0.26 5.13333 0 -0.28 5.13333 0 -0.3 5.13333 0 -0.32 5.13333 0 -0.34 5.13333 0 -0.36 5.13333 0 -0.38 5.13333 0 -0.4 5.13333 0 -0.42 5.13333 0 -0.44 5.13333 0 -0.46 5.13333 0 -0.48 5.13333 0 -0.5 5.13333 0 -0.52 5.13333 0 -0.54 5.13333 0 -0.56 5.13333 0 -0.58 5.13333 0 -0.6 5.13333 0 -0.62 5.13333 0 -0.64 5.13333 0 -0.66 5.13333 0 -0.68 5.13333 0 -0.7 5.13333 0 -0.72 5.13333 0 -0.74 5.13333 0 -0.76 5.13333 0 -0.78 5.13333 0 -0.8 5.13333 0 -0.82 5.13333 0 -0.84 5.13333 0 -0.86 5.13333 0 -0.88 5.13333 0 -0.9 5.13333 0 -0.92 5.13333 0 -0.94 5.13333 0 -0.96 5.13333 0 -0.98 5.13333 0 0.98 5.2 0 0.96 5.2 0 0.94 5.2 0 0.92 5.2 0 0.9 5.2 0 0.88 5.2 0 0.86 5.2 0 0.84 5.2 0 0.82 5.2 0 0.8 5.2 0 0.78 5.2 0 0.76 5.2 0 0.74 5.2 0 0.72 5.2 0 0.7 5.2 0 0.68 5.2 0 0.66 5.2 0 0.64 5.2 0 0.62 5.2 0 0.6 5.2 0 0.58 5.2 0 0.56 5.2 0 0.54 5.2 0 0.52 5.2 0 0.5 5.2 0 0.48 5.2 0 0.46 5.2 0 0.44 5.2 0 0.42 5.2 0 0.4 5.2 0 0.38 5.2 0 0.36 5.2 0 0.34 5.2 0 0.32 5.2 0 0.3 5.2 0 0.28 5.2 0 0.26 5.2 0 0.24 5.2 0 0.22 5.2 0 0.2 5.2 0 0.18 5.2 0 0.16 5.2 0 0.14 5.2 0 0.12 5.2 0 0.1 5.2 0 0.08 5.2 0 0.06 5.2 0 0.04 5.2 0 0.02 5.2 0 0 5.2 0 -0.02 5.2 0 -0.04 5.2 0 -0.06 5.2 0 -0.08 5.2 0 -0.1 5.2 0 -0.12 5.2 0 -0.14 5.2 0 -0.16 5.2 0 -0.18 5.2 0 -0.2 5.2 0 -0.22 5.2 0 -0.24 5.2 0 -0.26 5.2 0 -0.28 5.2 0 -0.3 5.2 0 -0.32 5.2 0 -0.34 5.2 0 -0.36 5.2 0 -0.38 5.2 0 -0.4 5.2 0 -0.42 5.2 0 -0.44 5.2 0 -0.46 5.2 0 -0.48 5.2 0 -0.5 5.2 0 -0.52 5.2 0 -0.54 5.2 0 -0.56 5.2 0 -0.58 5.2 0 -0.6 5.2 0 -0.62 5.2 0 -0.64 5.2 0 -0.66 5.2 0 -0.68 5.2 0 -0.7 5.2 0 -0.72 5.2 0 -0.74 5.2 0 -0.76 5.2 0 -0.78 5.2 0 -0.8 5.2 0 -0.82 5.2 0 -0.84 5.2 0 -0.86 5.2 0 -0.88 5.2 0 -0.9 5.2 0 -0.92 5.2 0 -0.94 5.2 0 -0.96 5.2 0 -0.98 5.2 0 0.98 5.26667 0 0.96 5.26667 0 0.94 5.26667 0 0.92 5.26667 0 0.9 5.26667 0 0.88 5.26667 0 0.86 5.26667 0 0.84 5.26667 0 0.82 5.26667 0 0.8 5.26667 0 0.78 5.26667 0 0.76 5.26667 0 0.74 5.26667 0 0.72 5.26667 0 0.7 5.26667 0 0.68 5.26667 0 0.66 5.26667 0 0.64 5.26667 0 0.62 5.26667 0 0.6 5.26667 0 0.58 5.26667 0 0.56 5.26667 0 0.54 5.26667 0 0.52 5.26667 0 0.5 5.26667 0 0.48 5.26667 0 0.46 5.26667 0 0.44 5.26667 0 0.42 5.26667 0 0.4 5.26667 0 0.38 5.26667 0 0.36 5.26667 0 0.34 5.26667 0 0.32 5.26667 0 0.3 5.26667 0 0.28 5.26667 0 0.26 5.26667 0 0.24 5.26667 0 0.22 5.26667 0 0.2 5.26667 0 0.18 5.26667 0 0.16 5.26667 0 0.14 5.26667 0 0.12 5.26667 0 0.1 5.26667 0 0.08 5.26667 0 0.06 5.26667 0 0.04 5.26667 0 0.02 5.26667 0 0 5.26667 0 -0.02 5.26667 0 -0.04 5.26667 0 -0.06 5.26667 0 -0.08 5.26667 0 -0.1 5.26667 0 -0.12 5.26667 0 -0.14 5.26667 0 -0.16 5.26667 0 -0.18 5.26667 0 -0.2 5.26667 0 -0.22 5.26667 0 -0.24 5.26667 0 -0.26 5.26667 0 -0.28 5.26667 0 -0.3 5.26667 0 -0.32 5.26667 0 -0.34 5.26667 0 -0.36 5.26667 0 -0.38 5.26667 0 -0.4 5.26667 0 -0.42 5.26667 0 -0.44 5.26667 0 -0.46 5.26667 0 -0.48 5.26667 0 -0.5 5.26667 0 -0.52 5.26667 0 -0.54 5.26667 0 -0.56 5.26667 0 -0.58 5.26667 0 -0.6 5.26667 0 -0.62 5.26667 0 -0.64 5.26667 0 -0.66 5.26667 0 -0.68 5.26667 0 -0.7 5.26667 0 -0.72 5.26667 0 -0.74 5.26667 0 -0.76 5.26667 0 -0.78 5.26667 0 -0.8 5.26667 0 -0.82 5.26667 0 -0.84 5.26667 0 -0.86 5.26667 0 -0.88 5.26667 0 -0.9 5.26667 0 -0.92 5.26667 0 -0.94 5.26667 0 -0.96 5.26667 0 -0.98 5.26667 0 0.98 5.33333 0 0.96 5.33333 0 0.94 5.33333 0 0.92 5.33333 0 0.9 5.33333 0 0.88 5.33333 0 0.86 5.33333 0 0.84 5.33333 0 0.82 5.33333 0 0.8 5.33333 0 0.78 5.33333 0 0.76 5.33333 0 0.74 5.33333 0 0.72 5.33333 0 0.7 5.33333 0 0.68 5.33333 0 0.66 5.33333 0 0.64 5.33333 0 0.62 5.33333 0 0.6 5.33333 0 0.58 5.33333 0 0.56 5.33333 0 0.54 5.33333 0 0.52 5.33333 0 0.5 5.33333 0 0.48 5.33333 0 0.46 5.33333 0 0.44 5.33333 0 0.42 5.33333 0 0.4 5.33333 0 0.38 5.33333 0 0.36 5.33333 0 0.34 5.33333 0 0.32 5.33333 0 0.3 5.33333 0 0.28 5.33333 0 0.26 5.33333 0 0.24 5.33333 0 0.22 5.33333 0 0.2 5.33333 0 0.18 5.33333 0 0.16 5.33333 0 0.14 5.33333 0 0.12 5.33333 0 0.1 5.33333 0 0.08 5.33333 0 0.06 5.33333 0 0.04 5.33333 0 0.02 5.33333 0 0 5.33333 0 -0.02 5.33333 0 -0.04 5.33333 0 -0.06 5.33333 0 -0.08 5.33333 0 -0.1 5.33333 0 -0.12 5.33333 0 -0.14 5.33333 0 -0.16 5.33333 0 -0.18 5.33333 0 -0.2 5.33333 0 -0.22 5.33333 0 -0.24 5.33333 0 -0.26 5.33333 0 -0.28 5.33333 0 -0.3 5.33333 0 -0.32 5.33333 0 -0.34 5.33333 0 -0.36 5.33333 0 -0.38 5.33333 0 -0.4 5.33333 0 -0.42 5.33333 0 -0.44 5.33333 0 -0.46 5.33333 0 -0.48 5.33333 0 -0.5 5.33333 0 -0.52 5.33333 0 -0.54 5.33333 0 -0.56 5.33333 0 -0.58 5.33333 0 -0.6 5.33333 0 -0.62 5.33333 0 -0.64 5.33333 0 -0.66 5.33333 0 -0.68 5.33333 0 -0.7 5.33333 0 -0.72 5.33333 0 -0.74 5.33333 0 -0.76 5.33333 0 -0.78 5.33333 0 -0.8 5.33333 0 -0.82 5.33333 0 -0.84 5.33333 0 -0.86 5.33333 0 -0.88 5.33333 0 -0.9 5.33333 0 -0.92 5.33333 0 -0.94 5.33333 0 -0.96 5.33333 0 -0.98 5.33333 0 0.98 5.4 0 0.96 5.4 0 0.94 5.4 0 0.92 5.4 0 0.9 5.4 0 0.88 5.4 0 0.86 5.4 0 0.84 5.4 0 0.82 5.4 0 0.8 5.4 0 0.78 5.4 0 0.76 5.4 0 0.74 5.4 0 0.72 5.4 0 0.7 5.4 0 0.68 5.4 0 0.66 5.4 0 0.64 5.4 0 0.62 5.4 0 0.6 5.4 0 0.58 5.4 0 0.56 5.4 0 0.54 5.4 0 0.52 5.4 0 0.5 5.4 0 0.48 5.4 0 0.46 5.4 0 0.44 5.4 0 0.42 5.4 0 0.4 5.4 0 0.38 5.4 0 0.36 5.4 0 0.34 5.4 0 0.32 5.4 0 0.3 5.4 0 0.28 5.4 0 0.26 5.4 0 0.24 5.4 0 0.22 5.4 0 0.2 5.4 0 0.18 5.4 0 0.16 5.4 0 0.14 5.4 0 0.12 5.4 0 0.1 5.4 0 0.08 5.4 0 0.06 5.4 0 0.04 5.4 0 0.02 5.4 0 0 5.4 0 -0.02 5.4 0 -0.04 5.4 0 -0.06 5.4 0 -0.08 5.4 0 -0.1 5.4 0 -0.12 5.4 0 -0.14 5.4 0 -0.16 5.4 0 -0.18 5.4 0 -0.2 5.4 0 -0.22 5.4 0 -0.24 5.4 0 -0.26 5.4 0 -0.28 5.4 0 -0.3 5.4 0 -0.32 5.4 0 -0.34 5.4 0 -0.36 5.4 0 -0.38 5.4 0 -0.4 5.4 0 -0.42 5.4 0 -0.44 5.4 0 -0.46 5.4 0 -0.48 5.4 0 -0.5 5.4 0 -0.52 5.4 0 -0.54 5.4 0 -0.56 5.4 0 -0.58 5.4 0 -0.6 5.4 0 -0.62 5.4 0 -0.64 5.4 0 -0.66 5.4 0 -0.68 5.4 0 -0.7 5.4 0 -0.72 5.4 0 -0.74 5.4 0 -0.76 5.4 0 -0.78 5.4 0 -0.8 5.4 0 -0.82 5.4 0 -0.84 5.4 0 -0.86 5.4 0 -0.88 5.4 0 -0.9 5.4 0 -0.92 5.4 0 -0.94 5.4 0 -0.96 5.4 0 -0.98 5.4 0 0.98 5.46667 0 0.96 5.46667 0 0.94 5.46667 0 0.92 5.46667 0 0.9 5.46667 0 0.88 5.46667 0 0.86 5.46667 0 0.84 5.46667 0 0.82 5.46667 0 0.8 5.46667 0 0.78 5.46667 0 0.76 5.46667 0 0.74 5.46667 0 0.72 5.46667 0 0.7 5.46667 0 0.68 5.46667 0 0.66 5.46667 0 0.64 5.46667 0 0.62 5.46667 0 0.6 5.46667 0 0.58 5.46667 0 0.56 5.46667 0 0.54 5.46667 0 0.52 5.46667 0 0.5 5.46667 0 0.48 5.46667 0 0.46 5.46667 0 0.44 5.46667 0 0.42 5.46667 0 0.4 5.46667 0 0.38 5.46667 0 0.36 5.46667 0 0.34 5.46667 0 0.32 5.46667 0 0.3 5.46667 0 0.28 5.46667 0 0.26 5.46667 0 0.24 5.46667 0 0.22 5.46667 0 0.2 5.46667 0 0.18 5.46667 0 0.16 5.46667 0 0.14 5.46667 0 0.12 5.46667 0 0.1 5.46667 0 0.08 5.46667 0 0.06 5.46667 0 0.04 5.46667 0 0.02 5.46667 0 0 5.46667 0 -0.02 5.46667 0 -0.04 5.46667 0 -0.06 5.46667 0 -0.08 5.46667 0 -0.1 5.46667 0 -0.12 5.46667 0 -0.14 5.46667 0 -0.16 5.46667 0 -0.18 5.46667 0 -0.2 5.46667 0 -0.22 5.46667 0 -0.24 5.46667 0 -0.26 5.46667 0 -0.28 5.46667 0 -0.3 5.46667 0 -0.32 5.46667 0 -0.34 5.46667 0 -0.36 5.46667 0 -0.38 5.46667 0 -0.4 5.46667 0 -0.42 5.46667 0 -0.44 5.46667 0 -0.46 5.46667 0 -0.48 5.46667 0 -0.5 5.46667 0 -0.52 5.46667 0 -0.54 5.46667 0 -0.56 5.46667 0 -0.58 5.46667 0 -0.6 5.46667 0 -0.62 5.46667 0 -0.64 5.46667 0 -0.66 5.46667 0 -0.68 5.46667 0 -0.7 5.46667 0 -0.72 5.46667 0 -0.74 5.46667 0 -0.76 5.46667 0 -0.78 5.46667 0 -0.8 5.46667 0 -0.82 5.46667 0 -0.84 5.46667 0 -0.86 5.46667 0 -0.88 5.46667 0 -0.9 5.46667 0 -0.92 5.46667 0 -0.94 5.46667 0 -0.96 5.46667 0 -0.98 5.46667 0 0.98 5.53333 0 0.96 5.53333 0 0.94 5.53333 0 0.92 5.53333 0 0.9 5.53333 0 0.88 5.53333 0 0.86 5.53333 0 0.84 5.53333 0 0.82 5.53333 0 0.8 5.53333 0 0.78 5.53333 0 0.76 5.53333 0 0.74 5.53333 0 0.72 5.53333 0 0.7 5.53333 0 0.68 5.53333 0 0.66 5.53333 0 0.64 5.53333 0 0.62 5.53333 0 0.6 5.53333 0 0.58 5.53333 0 0.56 5.53333 0 0.54 5.53333 0 0.52 5.53333 0 0.5 5.53333 0 0.48 5.53333 0 0.46 5.53333 0 0.44 5.53333 0 0.42 5.53333 0 0.4 5.53333 0 0.38 5.53333 0 0.36 5.53333 0 0.34 5.53333 0 0.32 5.53333 0 0.3 5.53333 0 0.28 5.53333 0 0.26 5.53333 0 0.24 5.53333 0 0.22 5.53333 0 0.2 5.53333 0 0.18 5.53333 0 0.16 5.53333 0 0.14 5.53333 0 0.12 5.53333 0 0.1 5.53333 0 0.08 5.53333 0 0.06 5.53333 0 0.04 5.53333 0 0.02 5.53333 0 0 5.53333 0 -0.02 5.53333 0 -0.04 5.53333 0 -0.06 5.53333 0 -0.08 5.53333 0 -0.1 5.53333 0 -0.12 5.53333 0 -0.14 5.53333 0 -0.16 5.53333 0 -0.18 5.53333 0 -0.2 5.53333 0 -0.22 5.53333 0 -0.24 5.53333 0 -0.26 5.53333 0 -0.28 5.53333 0 -0.3 5.53333 0 -0.32 5.53333 0 -0.34 5.53333 0 -0.36 5.53333 0 -0.38 5.53333 0 -0.4 5.53333 0 -0.42 5.53333 0 -0.44 5.53333 0 -0.46 5.53333 0 -0.48 5.53333 0 -0.5 5.53333 0 -0.52 5.53333 0 -0.54 5.53333 0 -0.56 5.53333 0 -0.58 5.53333 0 -0.6 5.53333 0 -0.62 5.53333 0 -0.64 5.53333 0 -0.66 5.53333 0 -0.68 5.53333 0 -0.7 5.53333 0 -0.72 5.53333 0 -0.74 5.53333 0 -0.76 5.53333 0 -0.78 5.53333 0 -0.8 5.53333 0 -0.82 5.53333 0 -0.84 5.53333 0 -0.86 5.53333 0 -0.88 5.53333 0 -0.9 5.53333 0 -0.92 5.53333 0 -0.94 5.53333 0 -0.96 5.53333 0 -0.98 5.53333 0 0.98 5.6 0 0.96 5.6 0 0.94 5.6 0 0.92 5.6 0 0.9 5.6 0 0.88 5.6 0 0.86 5.6 0 0.84 5.6 0 0.82 5.6 0 0.8 5.6 0 0.78 5.6 0 0.76 5.6 0 0.74 5.6 0 0.72 5.6 0 0.7 5.6 0 0.68 5.6 0 0.66 5.6 0 0.64 5.6 0 0.62 5.6 0 0.6 5.6 0 0.58 5.6 0 0.56 5.6 0 0.54 5.6 0 0.52 5.6 0 0.5 5.6 0 0.48 5.6 0 0.46 5.6 0 0.44 5.6 0 0.42 5.6 0 0.4 5.6 0 0.38 5.6 0 0.36 5.6 0 0.34 5.6 0 0.32 5.6 0 0.3 5.6 0 0.28 5.6 0 0.26 5.6 0 0.24 5.6 0 0.22 5.6 0 0.2 5.6 0 0.18 5.6 0 0.16 5.6 0 0.14 5.6 0 0.12 5.6 0 0.1 5.6 0 0.08 5.6 0 0.06 5.6 0 0.04 5.6 0 0.02 5.6 0 0 5.6 0 -0.02 5.6 0 -0.04 5.6 0 -0.06 5.6 0 -0.08 5.6 0 -0.1 5.6 0 -0.12 5.6 0 -0.14 5.6 0 -0.16 5.6 0 -0.18 5.6 0 -0.2 5.6 0 -0.22 5.6 0 -0.24 5.6 0 -0.26 5.6 0 -0.28 5.6 0 -0.3 5.6 0 -0.32 5.6 0 -0.34 5.6 0 -0.36 5.6 0 -0.38 5.6 0 -0.4 5.6 0 -0.42 5.6 0 -0.44 5.6 0 -0.46 5.6 0 -0.48 5.6 0 -0.5 5.6 0 -0.52 5.6 0 -0.54 5.6 0 -0.56 5.6 0 -0.58 5.6 0 -0.6 5.6 0 -0.62 5.6 0 -0.64 5.6 0 -0.66 5.6 0 -0.68 5.6 0 -0.7 5.6 0 -0.72 5.6 0 -0.74 5.6 0 -0.76 5.6 0 -0.78 5.6 0 -0.8 5.6 0 -0.82 5.6 0 -0.84 5.6 0 -0.86 5.6 0 -0.88 5.6 0 -0.9 5.6 0 -0.92 5.6 0 -0.94 5.6 0 -0.96 5.6 0 -0.98 5.6 0 0.98 5.66667 0 0.96 5.66667 0 0.94 5.66667 0 0.92 5.66667 0 0.9 5.66667 0 0.88 5.66667 0 0.86 5.66667 0 0.84 5.66667 0 0.82 5.66667 0 0.8 5.66667 0 0.78 5.66667 0 0.76 5.66667 0 0.74 5.66667 0 0.72 5.66667 0 0.7 5.66667 0 0.68 5.66667 0 0.66 5.66667 0 0.64 5.66667 0 0.62 5.66667 0 0.6 5.66667 0 0.58 5.66667 0 0.56 5.66667 0 0.54 5.66667 0 0.52 5.66667 0 0.5 5.66667 0 0.48 5.66667 0 0.46 5.66667 0 0.44 5.66667 0 0.42 5.66667 0 0.4 5.66667 0 0.38 5.66667 0 0.36 5.66667 0 0.34 5.66667 0 0.32 5.66667 0 0.3 5.66667 0 0.28 5.66667 0 0.26 5.66667 0 0.24 5.66667 0 0.22 5.66667 0 0.2 5.66667 0 0.18 5.66667 0 0.16 5.66667 0 0.14 5.66667 0 0.12 5.66667 0 0.1 5.66667 0 0.08 5.66667 0 0.06 5.66667 0 0.04 5.66667 0 0.02 5.66667 0 0 5.66667 0 -0.02 5.66667 0 -0.04 5.66667 0 -0.06 5.66667 0 -0.08 5.66667 0 -0.1 5.66667 0 -0.12 5.66667 0 -0.14 5.66667 0 -0.16 5.66667 0 -0.18 5.66667 0 -0.2 5.66667 0 -0.22 5.66667 0 -0.24 5.66667 0 -0.26 5.66667 0 -0.28 5.66667 0 -0.3 5.66667 0 -0.32 5.66667 0 -0.34 5.66667 0 -0.36 5.66667 0 -0.38 5.66667 0 -0.4 5.66667 0 -0.42 5.66667 0 -0.44 5.66667 0 -0.46 5.66667 0 -0.48 5.66667 0 -0.5 5.66667 0 -0.52 5.66667 0 -0.54 5.66667 0 -0.56 5.66667 0 -0.58 5.66667 0 -0.6 5.66667 0 -0.62 5.66667 0 -0.64 5.66667 0 -0.66 5.66667 0 -0.68 5.66667 0 -0.7 5.66667 0 -0.72 5.66667 0 -0.74 5.66667 0 -0.76 5.66667 0 -0.78 5.66667 0 -0.8 5.66667 0 -0.82 5.66667 0 -0.84 5.66667 0 -0.86 5.66667 0 -0.88 5.66667 0 -0.9 5.66667 0 -0.92 5.66667 0 -0.94 5.66667 0 -0.96 5.66667 0 -0.98 5.66667 0 0.98 5.73333 0 0.96 5.73333 0 0.94 5.73333 0 0.92 5.73333 0 0.9 5.73333 0 0.88 5.73333 0 0.86 5.73333 0 0.84 5.73333 0 0.82 5.73333 0 0.8 5.73333 0 0.78 5.73333 0 0.76 5.73333 0 0.74 5.73333 0 0.72 5.73333 0 0.7 5.73333 0 0.68 5.73333 0 0.66 5.73333 0 0.64 5.73333 0 0.62 5.73333 0 0.6 5.73333 0 0.58 5.73333 0 0.56 5.73333 0 0.54 5.73333 0 0.52 5.73333 0 0.5 5.73333 0 0.48 5.73333 0 0.46 5.73333 0 0.44 5.73333 0 0.42 5.73333 0 0.4 5.73333 0 0.38 5.73333 0 0.36 5.73333 0 0.34 5.73333 0 0.32 5.73333 0 0.3 5.73333 0 0.28 5.73333 0 0.26 5.73333 0 0.24 5.73333 0 0.22 5.73333 0 0.2 5.73333 0 0.18 5.73333 0 0.16 5.73333 0 0.14 5.73333 0 0.12 5.73333 0 0.1 5.73333 0 0.08 5.73333 0 0.06 5.73333 0 0.04 5.73333 0 0.02 5.73333 0 0 5.73333 0 -0.02 5.73333 0 -0.04 5.73333 0 -0.06 5.73333 0 -0.08 5.73333 0 -0.1 5.73333 0 -0.12 5.73333 0 -0.14 5.73333 0 -0.16 5.73333 0 -0.18 5.73333 0 -0.2 5.73333 0 -0.22 5.73333 0 -0.24 5.73333 0 -0.26 5.73333 0 -0.28 5.73333 0 -0.3 5.73333 0 -0.32 5.73333 0 -0.34 5.73333 0 -0.36 5.73333 0 -0.38 5.73333 0 -0.4 5.73333 0 -0.42 5.73333 0 -0.44 5.73333 0 -0.46 5.73333 0 -0.48 5.73333 0 -0.5 5.73333 0 -0.52 5.73333 0 -0.54 5.73333 0 -0.56 5.73333 0 -0.58 5.73333 0 -0.6 5.73333 0 -0.62 5.73333 0 -0.64 5.73333 0 -0.66 5.73333 0 -0.68 5.73333 0 -0.7 5.73333 0 -0.72 5.73333 0 -0.74 5.73333 0 -0.76 5.73333 0 -0.78 5.73333 0 -0.8 5.73333 0 -0.82 5.73333 0 -0.84 5.73333 0 -0.86 5.73333 0 -0.88 5.73333 0 -0.9 5.73333 0 -0.92 5.73333 0 -0.94 5.73333 0 -0.96 5.73333 0 -0.98 5.73333 0 0.98 5.8 0 0.96 5.8 0 0.94 5.8 0 0.92 5.8 0 0.9 5.8 0 0.88 5.8 0 0.86 5.8 0 0.84 5.8 0 0.82 5.8 0 0.8 5.8 0 0.78 5.8 0 0.76 5.8 0 0.74 5.8 0 0.72 5.8 0 0.7 5.8 0 0.68 5.8 0 0.66 5.8 0 0.64 5.8 0 0.62 5.8 0 0.6 5.8 0 0.58 5.8 0 0.56 5.8 0 0.54 5.8 0 0.52 5.8 0 0.5 5.8 0 0.48 5.8 0 0.46 5.8 0 0.44 5.8 0 0.42 5.8 0 0.4 5.8 0 0.38 5.8 0 0.36 5.8 0 0.34 5.8 0 0.32 5.8 0 0.3 5.8 0 0.28 5.8 0 0.26 5.8 0 0.24 5.8 0 0.22 5.8 0 0.2 5.8 0 0.18 5.8 0 0.16 5.8 0 0.14 5.8 0 0.12 5.8 0 0.1 5.8 0 0.08 5.8 0 0.06 5.8 0 0.04 5.8 0 0.02 5.8 0 0 5.8 0 -0.02 5.8 0 -0.04 5.8 0 -0.06 5.8 0 -0.08 5.8 0 -0.1 5.8 0 -0.12 5.8 0 -0.14 5.8 0 -0.16 5.8 0 -0.18 5.8 0 -0.2 5.8 0 -0.22 5.8 0 -0.24 5.8 0 -0.26 5.8 0 -0.28 5.8 0 -0.3 5.8 0 -0.32 5.8 0 -0.34 5.8 0 -0.36 5.8 0 -0.38 5.8 0 -0.4 5.8 0 -0.42 5.8 0 -0.44 5.8 0 -0.46 5.8 0 -0.48 5.8 0 -0.5 5.8 0 -0.52 5.8 0 -0.54 5.8 0 -0.56 5.8 0 -0.58 5.8 0 -0.6 5.8 0 -0.62 5.8 0 -0.64 5.8 0 -0.66 5.8 0 -0.68 5.8 0 -0.7 5.8 0 -0.72 5.8 0 -0.74 5.8 0 -0.76 5.8 0 -0.78 5.8 0 -0.8 5.8 0 -0.82 5.8 0 -0.84 5.8 0 -0.86 5.8 0 -0.88 5.8 0 -0.9 5.8 0 -0.92 5.8 0 -0.94 5.8 0 -0.96 5.8 0 -0.98 5.8 0 0.98 5.86667 0 0.96 5.86667 0 0.94 5.86667 0 0.92 5.86667 0 0.9 5.86667 0 0.88 5.86667 0 0.86 5.86667 0 0.84 5.86667 0 0.82 5.86667 0 0.8 5.86667 0 0.78 5.86667 0 0.76 5.86667 0 0.74 5.86667 0 0.72 5.86667 0 0.7 5.86667 0 0.68 5.86667 0 0.66 5.86667 0 0.64 5.86667 0 0.62 5.86667 0 0.6 5.86667 0 0.58 5.86667 0 0.56 5.86667 0 0.54 5.86667 0 0.52 5.86667 0 0.5 5.86667 0 0.48 5.86667 0 0.46 5.86667 0 0.44 5.86667 0 0.42 5.86667 0 0.4 5.86667 0 0.38 5.86667 0 0.36 5.86667 0 0.34 5.86667 0 0.32 5.86667 0 0.3 5.86667 0 0.28 5.86667 0 0.26 5.86667 0 0.24 5.86667 0 0.22 5.86667 0 0.2 5.86667 0 0.18 5.86667 0 0.16 5.86667 0 0.14 5.86667 0 0.12 5.86667 0 0.1 5.86667 0 0.08 5.86667 0 0.06 5.86667 0 0.04 5.86667 0 0.02 5.86667 0 0 5.86667 0 -0.02 5.86667 0 -0.04 5.86667 0 -0.06 5.86667 0 -0.08 5.86667 0 -0.1 5.86667 0 -0.12 5.86667 0 -0.14 5.86667 0 -0.16 5.86667 0 -0.18 5.86667 0 -0.2 5.86667 0 -0.22 5.86667 0 -0.24 5.86667 0 -0.26 5.86667 0 -0.28 5.86667 0 -0.3 5.86667 0 -0.32 5.86667 0 -0.34 5.86667 0 -0.36 5.86667 0 -0.38 5.86667 0 -0.4 5.86667 0 -0.42 5.86667 0 -0.44 5.86667 0 -0.46 5.86667 0 -0.48 5.86667 0 -0.5 5.86667 0 -0.52 5.86667 0 -0.54 5.86667 0 -0.56 5.86667 0 -0.58 5.86667 0 -0.6 5.86667 0 -0.62 5.86667 0 -0.64 5.86667 0 -0.66 5.86667 0 -0.68 5.86667 0 -0.7 5.86667 0 -0.72 5.86667 0 -0.74 5.86667 0 -0.76 5.86667 0 -0.78 5.86667 0 -0.8 5.86667 0 -0.82 5.86667 0 -0.84 5.86667 0 -0.86 5.86667 0 -0.88 5.86667 0 -0.9 5.86667 0 -0.92 5.86667 0 -0.94 5.86667 0 -0.96 5.86667 0 -0.98 5.86667 0 0.98 5.93333 0 0.96 5.93333 0 0.94 5.93333 0 0.92 5.93333 0 0.9 5.93333 0 0.88 5.93333 0 0.86 5.93333 0 0.84 5.93333 0 0.82 5.93333 0 0.8 5.93333 0 0.78 5.93333 0 0.76 5.93333 0 0.74 5.93333 0 0.72 5.93333 0 0.7 5.93333 0 0.68 5.93333 0 0.66 5.93333 0 0.64 5.93333 0 0.62 5.93333 0 0.6 5.93333 0 0.58 5.93333 0 0.56 5.93333 0 0.54 5.93333 0 0.52 5.93333 0 0.5 5.93333 0 0.48 5.93333 0 0.46 5.93333 0 0.44 5.93333 0 0.42 5.93333 0 0.4 5.93333 0 0.38 5.93333 0 0.36 5.93333 0 0.34 5.93333 0 0.32 5.93333 0 0.3 5.93333 0 0.28 5.93333 0 0.26 5.93333 0 0.24 5.93333 0 0.22 5.93333 0 0.2 5.93333 0 0.18 5.93333 0 0.16 5.93333 0 0.14 5.93333 0 0.12 5.93333 0 0.1 5.93333 0 0.08 5.93333 0 0.06 5.93333 0 0.04 5.93333 0 0.02 5.93333 0 0 5.93333 0 -0.02 5.93333 0 -0.04 5.93333 0 -0.06 5.93333 0 -0.08 5.93333 0 -0.1 5.93333 0 -0.12 5.93333 0 -0.14 5.93333 0 -0.16 5.93333 0 -0.18 5.93333 0 -0.2 5.93333 0 -0.22 5.93333 0 -0.24 5.93333 0 -0.26 5.93333 0 -0.28 5.93333 0 -0.3 5.93333 0 -0.32 5.93333 0 -0.34 5.93333 0 -0.36 5.93333 0 -0.38 5.93333 0 -0.4 5.93333 0 -0.42 5.93333 0 -0.44 5.93333 0 -0.46 5.93333 0 -0.48 5.93333 0 -0.5 5.93333 0 -0.52 5.93333 0 -0.54 5.93333 0 -0.56 5.93333 0 -0.58 5.93333 0 -0.6 5.93333 0 -0.62 5.93333 0 -0.64 5.93333 0 -0.66 5.93333 0 -0.68 5.93333 0 -0.7 5.93333 0 -0.72 5.93333 0 -0.74 5.93333 0 -0.76 5.93333 0 -0.78 5.93333 0 -0.8 5.93333 0 -0.82 5.93333 0 -0.84 5.93333 0 -0.86 5.93333 0 -0.88 5.93333 0 -0.9 5.93333 0 -0.92 5.93333 0 -0.94 5.93333 0 -0.96 5.93333 0 -0.98 5.93333 0 0.98 6 0 0.96 6 0 0.94 6 0 0.92 6 0 0.9 6 0 0.88 6 0 0.86 6 0 0.84 6 0 0.82 6 0 0.8 6 0 0.78 6 0 0.76 6 0 0.74 6 0 0.72 6 0 0.7 6 0 0.68 6 0 0.66 6 0 0.64 6 0 0.62 6 0 0.6 6 0 0.58 6 0 0.56 6 0 0.54 6 0 0.52 6 0 0.5 6 0 0.48 6 0 0.46 6 0 0.44 6 0 0.42 6 0 0.4 6 0 0.38 6 0 0.36 6 0 0.34 6 0 0.32 6 0 0.3 6 0 0.28 6 0 0.26 6 0 0.24 6 0 0.22 6 0 0.2 6 0 0.18 6 0 0.16 6 0 0.14 6 0 0.12 6 0 0.1 6 0 0.08 6 0 0.06 6 0 0.04 6 0 0.02 6 0 0 6 0 -0.02 6 0 -0.04 6 0 -0.06 6 0 -0.08 6 0 -0.1 6 0 -0.12 6 0 -0.14 6 0 -0.16 6 0 -0.18 6 0 -0.2 6 0 -0.22 6 0 -0.24 6 0 -0.26 6 0 -0.28 6 0 -0.3 6 0 -0.32 6 0 -0.34 6 0 -0.36 6 0 -0.38 6 0 -0.4 6 0 -0.42 6 0 -0.44 6 0 -0.46 6 0 -0.48 6 0 -0.5 6 0 -0.52 6 0 -0.54 6 0 -0.56 6 0 -0.58 6 0 -0.6 6 0 -0.62 6 0 -0.64 6 0 -0.66 6 0 -0.68 6 0 -0.7 6 0 -0.72 6 0 -0.74 6 0 -0.76 6 0 -0.78 6 0 -0.8 6 0 -0.82 6 0 -0.84 6 0 -0.86 6 0 -0.88 6 0 -0.9 6 0 -0.92 6 0 -0.94 6 0 -0.96 6 0 -0.98 6 0 0.98 6.06667 0 0.96 6.06667 0 0.94 6.06667 0 0.92 6.06667 0 0.9 6.06667 0 0.88 6.06667 0 0.86 6.06667 0 0.84 6.06667 0 0.82 6.06667 0 0.8 6.06667 0 0.78 6.06667 0 0.76 6.06667 0 0.74 6.06667 0 0.72 6.06667 0 0.7 6.06667 0 0.68 6.06667 0 0.66 6.06667 0 0.64 6.06667 0 0.62 6.06667 0 0.6 6.06667 0 0.58 6.06667 0 0.56 6.06667 0 0.54 6.06667 0 0.52 6.06667 0 0.5 6.06667 0 0.48 6.06667 0 0.46 6.06667 0 0.44 6.06667 0 0.42 6.06667 0 0.4 6.06667 0 0.38 6.06667 0 0.36 6.06667 0 0.34 6.06667 0 0.32 6.06667 0 0.3 6.06667 0 0.28 6.06667 0 0.26 6.06667 0 0.24 6.06667 0 0.22 6.06667 0 0.2 6.06667 0 0.18 6.06667 0 0.16 6.06667 0 0.14 6.06667 0 0.12 6.06667 0 0.1 6.06667 0 0.08 6.06667 0 0.06 6.06667 0 0.04 6.06667 0 0.02 6.06667 0 0 6.06667 0 -0.02 6.06667 0 -0.04 6.06667 0 -0.06 6.06667 0 -0.08 6.06667 0 -0.1 6.06667 0 -0.12 6.06667 0 -0.14 6.06667 0 -0.16 6.06667 0 -0.18 6.06667 0 -0.2 6.06667 0 -0.22 6.06667 0 -0.24 6.06667 0 -0.26 6.06667 0 -0.28 6.06667 0 -0.3 6.06667 0 -0.32 6.06667 0 -0.34 6.06667 0 -0.36 6.06667 0 -0.38 6.06667 0 -0.4 6.06667 0 -0.42 6.06667 0 -0.44 6.06667 0 -0.46 6.06667 0 -0.48 6.06667 0 -0.5 6.06667 0 -0.52 6.06667 0 -0.54 6.06667 0 -0.56 6.06667 0 -0.58 6.06667 0 -0.6 6.06667 0 -0.62 6.06667 0 -0.64 6.06667 0 -0.66 6.06667 0 -0.68 6.06667 0 -0.7 6.06667 0 -0.72 6.06667 0 -0.74 6.06667 0 -0.76 6.06667 0 -0.78 6.06667 0 -0.8 6.06667 0 -0.82 6.06667 0 -0.84 6.06667 0 -0.86 6.06667 0 -0.88 6.06667 0 -0.9 6.06667 0 -0.92 6.06667 0 -0.94 6.06667 0 -0.96 6.06667 0 -0.98 6.06667 0 0.98 6.13333 0 0.96 6.13333 0 0.94 6.13333 0 0.92 6.13333 0 0.9 6.13333 0 0.88 6.13333 0 0.86 6.13333 0 0.84 6.13333 0 0.82 6.13333 0 0.8 6.13333 0 0.78 6.13333 0 0.76 6.13333 0 0.74 6.13333 0 0.72 6.13333 0 0.7 6.13333 0 0.68 6.13333 0 0.66 6.13333 0 0.64 6.13333 0 0.62 6.13333 0 0.6 6.13333 0 0.58 6.13333 0 0.56 6.13333 0 0.54 6.13333 0 0.52 6.13333 0 0.5 6.13333 0 0.48 6.13333 0 0.46 6.13333 0 0.44 6.13333 0 0.42 6.13333 0 0.4 6.13333 0 0.38 6.13333 0 0.36 6.13333 0 0.34 6.13333 0 0.32 6.13333 0 0.3 6.13333 0 0.28 6.13333 0 0.26 6.13333 0 0.24 6.13333 0 0.22 6.13333 0 0.2 6.13333 0 0.18 6.13333 0 0.16 6.13333 0 0.14 6.13333 0 0.12 6.13333 0 0.1 6.13333 0 0.08 6.13333 0 0.06 6.13333 0 0.04 6.13333 0 0.02 6.13333 0 0 6.13333 0 -0.02 6.13333 0 -0.04 6.13333 0 -0.06 6.13333 0 -0.08 6.13333 0 -0.1 6.13333 0 -0.12 6.13333 0 -0.14 6.13333 0 -0.16 6.13333 0 -0.18 6.13333 0 -0.2 6.13333 0 -0.22 6.13333 0 -0.24 6.13333 0 -0.26 6.13333 0 -0.28 6.13333 0 -0.3 6.13333 0 -0.32 6.13333 0 -0.34 6.13333 0 -0.36 6.13333 0 -0.38 6.13333 0 -0.4 6.13333 0 -0.42 6.13333 0 -0.44 6.13333 0 -0.46 6.13333 0 -0.48 6.13333 0 -0.5 6.13333 0 -0.52 6.13333 0 -0.54 6.13333 0 -0.56 6.13333 0 -0.58 6.13333 0 -0.6 6.13333 0 -0.62 6.13333 0 -0.64 6.13333 0 -0.66 6.13333 0 -0.68 6.13333 0 -0.7 6.13333 0 -0.72 6.13333 0 -0.74 6.13333 0 -0.76 6.13333 0 -0.78 6.13333 0 -0.8 6.13333 0 -0.82 6.13333 0 -0.84 6.13333 0 -0.86 6.13333 0 -0.88 6.13333 0 -0.9 6.13333 0 -0.92 6.13333 0 -0.94 6.13333 0 -0.96 6.13333 0 -0.98 6.13333 0 0.98 6.2 0 0.96 6.2 0 0.94 6.2 0 0.92 6.2 0 0.9 6.2 0 0.88 6.2 0 0.86 6.2 0 0.84 6.2 0 0.82 6.2 0 0.8 6.2 0 0.78 6.2 0 0.76 6.2 0 0.74 6.2 0 0.72 6.2 0 0.7 6.2 0 0.68 6.2 0 0.66 6.2 0 0.64 6.2 0 0.62 6.2 0 0.6 6.2 0 0.58 6.2 0 0.56 6.2 0 0.54 6.2 0 0.52 6.2 0 0.5 6.2 0 0.48 6.2 0 0.46 6.2 0 0.44 6.2 0 0.42 6.2 0 0.4 6.2 0 0.38 6.2 0 0.36 6.2 0 0.34 6.2 0 0.32 6.2 0 0.3 6.2 0 0.28 6.2 0 0.26 6.2 0 0.24 6.2 0 0.22 6.2 0 0.2 6.2 0 0.18 6.2 0 0.16 6.2 0 0.14 6.2 0 0.12 6.2 0 0.1 6.2 0 0.08 6.2 0 0.06 6.2 0 0.04 6.2 0 0.02 6.2 0 0 6.2 0 -0.02 6.2 0 -0.04 6.2 0 -0.06 6.2 0 -0.08 6.2 0 -0.1 6.2 0 -0.12 6.2 0 -0.14 6.2 0 -0.16 6.2 0 -0.18 6.2 0 -0.2 6.2 0 -0.22 6.2 0 -0.24 6.2 0 -0.26 6.2 0 -0.28 6.2 0 -0.3 6.2 0 -0.32 6.2 0 -0.34 6.2 0 -0.36 6.2 0 -0.38 6.2 0 -0.4 6.2 0 -0.42 6.2 0 -0.44 6.2 0 -0.46 6.2 0 -0.48 6.2 0 -0.5 6.2 0 -0.52 6.2 0 -0.54 6.2 0 -0.56 6.2 0 -0.58 6.2 0 -0.6 6.2 0 -0.62 6.2 0 -0.64 6.2 0 -0.66 6.2 0 -0.68 6.2 0 -0.7 6.2 0 -0.72 6.2 0 -0.74 6.2 0 -0.76 6.2 0 -0.78 6.2 0 -0.8 6.2 0 -0.82 6.2 0 -0.84 6.2 0 -0.86 6.2 0 -0.88 6.2 0 -0.9 6.2 0 -0.92 6.2 0 -0.94 6.2 0 -0.96 6.2 0 -0.98 6.2 0 0.98 6.26667 0 0.96 6.26667 0 0.94 6.26667 0 0.92 6.26667 0 0.9 6.26667 0 0.88 6.26667 0 0.86 6.26667 0 0.84 6.26667 0 0.82 6.26667 0 0.8 6.26667 0 0.78 6.26667 0 0.76 6.26667 0 0.74 6.26667 0 0.72 6.26667 0 0.7 6.26667 0 0.68 6.26667 0 0.66 6.26667 0 0.64 6.26667 0 0.62 6.26667 0 0.6 6.26667 0 0.58 6.26667 0 0.56 6.26667 0 0.54 6.26667 0 0.52 6.26667 0 0.5 6.26667 0 0.48 6.26667 0 0.46 6.26667 0 0.44 6.26667 0 0.42 6.26667 0 0.4 6.26667 0 0.38 6.26667 0 0.36 6.26667 0 0.34 6.26667 0 0.32 6.26667 0 0.3 6.26667 0 0.28 6.26667 0 0.26 6.26667 0 0.24 6.26667 0 0.22 6.26667 0 0.2 6.26667 0 0.18 6.26667 0 0.16 6.26667 0 0.14 6.26667 0 0.12 6.26667 0 0.1 6.26667 0 0.08 6.26667 0 0.06 6.26667 0 0.04 6.26667 0 0.02 6.26667 0 0 6.26667 0 -0.02 6.26667 0 -0.04 6.26667 0 -0.06 6.26667 0 -0.08 6.26667 0 -0.1 6.26667 0 -0.12 6.26667 0 -0.14 6.26667 0 -0.16 6.26667 0 -0.18 6.26667 0 -0.2 6.26667 0 -0.22 6.26667 0 -0.24 6.26667 0 -0.26 6.26667 0 -0.28 6.26667 0 -0.3 6.26667 0 -0.32 6.26667 0 -0.34 6.26667 0 -0.36 6.26667 0 -0.38 6.26667 0 -0.4 6.26667 0 -0.42 6.26667 0 -0.44 6.26667 0 -0.46 6.26667 0 -0.48 6.26667 0 -0.5 6.26667 0 -0.52 6.26667 0 -0.54 6.26667 0 -0.56 6.26667 0 -0.58 6.26667 0 -0.6 6.26667 0 -0.62 6.26667 0 -0.64 6.26667 0 -0.66 6.26667 0 -0.68 6.26667 0 -0.7 6.26667 0 -0.72 6.26667 0 -0.74 6.26667 0 -0.76 6.26667 0 -0.78 6.26667 0 -0.8 6.26667 0 -0.82 6.26667 0 -0.84 6.26667 0 -0.86 6.26667 0 -0.88 6.26667 0 -0.9 6.26667 0 -0.92 6.26667 0 -0.94 6.26667 0 -0.96 6.26667 0 -0.98 6.26667 0 0.98 6.33333 0 0.96 6.33333 0 0.94 6.33333 0 0.92 6.33333 0 0.9 6.33333 0 0.88 6.33333 0 0.86 6.33333 0 0.84 6.33333 0 0.82 6.33333 0 0.8 6.33333 0 0.78 6.33333 0 0.76 6.33333 0 0.74 6.33333 0 0.72 6.33333 0 0.7 6.33333 0 0.68 6.33333 0 0.66 6.33333 0 0.64 6.33333 0 0.62 6.33333 0 0.6 6.33333 0 0.58 6.33333 0 0.56 6.33333 0 0.54 6.33333 0 0.52 6.33333 0 0.5 6.33333 0 0.48 6.33333 0 0.46 6.33333 0 0.44 6.33333 0 0.42 6.33333 0 0.4 6.33333 0 0.38 6.33333 0 0.36 6.33333 0 0.34 6.33333 0 0.32 6.33333 0 0.3 6.33333 0 0.28 6.33333 0 0.26 6.33333 0 0.24 6.33333 0 0.22 6.33333 0 0.2 6.33333 0 0.18 6.33333 0 0.16 6.33333 0 0.14 6.33333 0 0.12 6.33333 0 0.1 6.33333 0 0.08 6.33333 0 0.06 6.33333 0 0.04 6.33333 0 0.02 6.33333 0 0 6.33333 0 -0.02 6.33333 0 -0.04 6.33333 0 -0.06 6.33333 0 -0.08 6.33333 0 -0.1 6.33333 0 -0.12 6.33333 0 -0.14 6.33333 0 -0.16 6.33333 0 -0.18 6.33333 0 -0.2 6.33333 0 -0.22 6.33333 0 -0.24 6.33333 0 -0.26 6.33333 0 -0.28 6.33333 0 -0.3 6.33333 0 -0.32 6.33333 0 -0.34 6.33333 0 -0.36 6.33333 0 -0.38 6.33333 0 -0.4 6.33333 0 -0.42 6.33333 0 -0.44 6.33333 0 -0.46 6.33333 0 -0.48 6.33333 0 -0.5 6.33333 0 -0.52 6.33333 0 -0.54 6.33333 0 -0.56 6.33333 0 -0.58 6.33333 0 -0.6 6.33333 0 -0.62 6.33333 0 -0.64 6.33333 0 -0.66 6.33333 0 -0.68 6.33333 0 -0.7 6.33333 0 -0.72 6.33333 0 -0.74 6.33333 0 -0.76 6.33333 0 -0.78 6.33333 0 -0.8 6.33333 0 -0.82 6.33333 0 -0.84 6.33333 0 -0.86 6.33333 0 -0.88 6.33333 0 -0.9 6.33333 0 -0.92 6.33333 0 -0.94 6.33333 0 -0.96 6.33333 0 -0.98 6.33333 0 0.98 6.4 0 0.96 6.4 0 0.94 6.4 0 0.92 6.4 0 0.9 6.4 0 0.88 6.4 0 0.86 6.4 0 0.84 6.4 0 0.82 6.4 0 0.8 6.4 0 0.78 6.4 0 0.76 6.4 0 0.74 6.4 0 0.72 6.4 0 0.7 6.4 0 0.68 6.4 0 0.66 6.4 0 0.64 6.4 0 0.62 6.4 0 0.6 6.4 0 0.58 6.4 0 0.56 6.4 0 0.54 6.4 0 0.52 6.4 0 0.5 6.4 0 0.48 6.4 0 0.46 6.4 0 0.44 6.4 0 0.42 6.4 0 0.4 6.4 0 0.38 6.4 0 0.36 6.4 0 0.34 6.4 0 0.32 6.4 0 0.3 6.4 0 0.28 6.4 0 0.26 6.4 0 0.24 6.4 0 0.22 6.4 0 0.2 6.4 0 0.18 6.4 0 0.16 6.4 0 0.14 6.4 0 0.12 6.4 0 0.1 6.4 0 0.08 6.4 0 0.06 6.4 0 0.04 6.4 0 0.02 6.4 0 0 6.4 0 -0.02 6.4 0 -0.04 6.4 0 -0.06 6.4 0 -0.08 6.4 0 -0.1 6.4 0 -0.12 6.4 0 -0.14 6.4 0 -0.16 6.4 0 -0.18 6.4 0 -0.2 6.4 0 -0.22 6.4 0 -0.24 6.4 0 -0.26 6.4 0 -0.28 6.4 0 -0.3 6.4 0 -0.32 6.4 0 -0.34 6.4 0 -0.36 6.4 0 -0.38 6.4 0 -0.4 6.4 0 -0.42 6.4 0 -0.44 6.4 0 -0.46 6.4 0 -0.48 6.4 0 -0.5 6.4 0 -0.52 6.4 0 -0.54 6.4 0 -0.56 6.4 0 -0.58 6.4 0 -0.6 6.4 0 -0.62 6.4 0 -0.64 6.4 0 -0.66 6.4 0 -0.68 6.4 0 -0.7 6.4 0 -0.72 6.4 0 -0.74 6.4 0 -0.76 6.4 0 -0.78 6.4 0 -0.8 6.4 0 -0.82 6.4 0 -0.84 6.4 0 -0.86 6.4 0 -0.88 6.4 0 -0.9 6.4 0 -0.92 6.4 0 -0.94 6.4 0 -0.96 6.4 0 -0.98 6.4 0 0.98 6.46667 0 0.96 6.46667 0 0.94 6.46667 0 0.92 6.46667 0 0.9 6.46667 0 0.88 6.46667 0 0.86 6.46667 0 0.84 6.46667 0 0.82 6.46667 0 0.8 6.46667 0 0.78 6.46667 0 0.76 6.46667 0 0.74 6.46667 0 0.72 6.46667 0 0.7 6.46667 0 0.68 6.46667 0 0.66 6.46667 0 0.64 6.46667 0 0.62 6.46667 0 0.6 6.46667 0 0.58 6.46667 0 0.56 6.46667 0 0.54 6.46667 0 0.52 6.46667 0 0.5 6.46667 0 0.48 6.46667 0 0.46 6.46667 0 0.44 6.46667 0 0.42 6.46667 0 0.4 6.46667 0 0.38 6.46667 0 0.36 6.46667 0 0.34 6.46667 0 0.32 6.46667 0 0.3 6.46667 0 0.28 6.46667 0 0.26 6.46667 0 0.24 6.46667 0 0.22 6.46667 0 0.2 6.46667 0 0.18 6.46667 0 0.16 6.46667 0 0.14 6.46667 0 0.12 6.46667 0 0.1 6.46667 0 0.08 6.46667 0 0.06 6.46667 0 0.04 6.46667 0 0.02 6.46667 0 0 6.46667 0 -0.02 6.46667 0 -0.04 6.46667 0 -0.06 6.46667 0 -0.08 6.46667 0 -0.1 6.46667 0 -0.12 6.46667 0 -0.14 6.46667 0 -0.16 6.46667 0 -0.18 6.46667 0 -0.2 6.46667 0 -0.22 6.46667 0 -0.24 6.46667 0 -0.26 6.46667 0 -0.28 6.46667 0 -0.3 6.46667 0 -0.32 6.46667 0 -0.34 6.46667 0 -0.36 6.46667 0 -0.38 6.46667 0 -0.4 6.46667 0 -0.42 6.46667 0 -0.44 6.46667 0 -0.46 6.46667 0 -0.48 6.46667 0 -0.5 6.46667 0 -0.52 6.46667 0 -0.54 6.46667 0 -0.56 6.46667 0 -0.58 6.46667 0 -0.6 6.46667 0 -0.62 6.46667 0 -0.64 6.46667 0 -0.66 6.46667 0 -0.68 6.46667 0 -0.7 6.46667 0 -0.72 6.46667 0 -0.74 6.46667 0 -0.76 6.46667 0 -0.78 6.46667 0 -0.8 6.46667 0 -0.82 6.46667 0 -0.84 6.46667 0 -0.86 6.46667 0 -0.88 6.46667 0 -0.9 6.46667 0 -0.92 6.46667 0 -0.94 6.46667 0 -0.96 6.46667 0 -0.98 6.46667 0 0.98 6.53333 0 0.96 6.53333 0 0.94 6.53333 0 0.92 6.53333 0 0.9 6.53333 0 0.88 6.53333 0 0.86 6.53333 0 0.84 6.53333 0 0.82 6.53333 0 0.8 6.53333 0 0.78 6.53333 0 0.76 6.53333 0 0.74 6.53333 0 0.72 6.53333 0 0.7 6.53333 0 0.68 6.53333 0 0.66 6.53333 0 0.64 6.53333 0 0.62 6.53333 0 0.6 6.53333 0 0.58 6.53333 0 0.56 6.53333 0 0.54 6.53333 0 0.52 6.53333 0 0.5 6.53333 0 0.48 6.53333 0 0.46 6.53333 0 0.44 6.53333 0 0.42 6.53333 0 0.4 6.53333 0 0.38 6.53333 0 0.36 6.53333 0 0.34 6.53333 0 0.32 6.53333 0 0.3 6.53333 0 0.28 6.53333 0 0.26 6.53333 0 0.24 6.53333 0 0.22 6.53333 0 0.2 6.53333 0 0.18 6.53333 0 0.16 6.53333 0 0.14 6.53333 0 0.12 6.53333 0 0.1 6.53333 0 0.08 6.53333 0 0.06 6.53333 0 0.04 6.53333 0 0.02 6.53333 0 0 6.53333 0 -0.02 6.53333 0 -0.04 6.53333 0 -0.06 6.53333 0 -0.08 6.53333 0 -0.1 6.53333 0 -0.12 6.53333 0 -0.14 6.53333 0 -0.16 6.53333 0 -0.18 6.53333 0 -0.2 6.53333 0 -0.22 6.53333 0 -0.24 6.53333 0 -0.26 6.53333 0 -0.28 6.53333 0 -0.3 6.53333 0 -0.32 6.53333 0 -0.34 6.53333 0 -0.36 6.53333 0 -0.38 6.53333 0 -0.4 6.53333 0 -0.42 6.53333 0 -0.44 6.53333 0 -0.46 6.53333 0 -0.48 6.53333 0 -0.5 6.53333 0 -0.52 6.53333 0 -0.54 6.53333 0 -0.56 6.53333 0 -0.58 6.53333 0 -0.6 6.53333 0 -0.62 6.53333 0 -0.64 6.53333 0 -0.66 6.53333 0 -0.68 6.53333 0 -0.7 6.53333 0 -0.72 6.53333 0 -0.74 6.53333 0 -0.76 6.53333 0 -0.78 6.53333 0 -0.8 6.53333 0 -0.82 6.53333 0 -0.84 6.53333 0 -0.86 6.53333 0 -0.88 6.53333 0 -0.9 6.53333 0 -0.92 6.53333 0 -0.94 6.53333 0 -0.96 6.53333 0 -0.98 6.53333 0 0.98 6.6 0 0.96 6.6 0 0.94 6.6 0 0.92 6.6 0 0.9 6.6 0 0.88 6.6 0 0.86 6.6 0 0.84 6.6 0 0.82 6.6 0 0.8 6.6 0 0.78 6.6 0 0.76 6.6 0 0.74 6.6 0 0.72 6.6 0 0.7 6.6 0 0.68 6.6 0 0.66 6.6 0 0.64 6.6 0 0.62 6.6 0 0.6 6.6 0 0.58 6.6 0 0.56 6.6 0 0.54 6.6 0 0.52 6.6 0 0.5 6.6 0 0.48 6.6 0 0.46 6.6 0 0.44 6.6 0 0.42 6.6 0 0.4 6.6 0 0.38 6.6 0 0.36 6.6 0 0.34 6.6 0 0.32 6.6 0 0.3 6.6 0 0.28 6.6 0 0.26 6.6 0 0.24 6.6 0 0.22 6.6 0 0.2 6.6 0 0.18 6.6 0 0.16 6.6 0 0.14 6.6 0 0.12 6.6 0 0.1 6.6 0 0.08 6.6 0 0.06 6.6 0 0.04 6.6 0 0.02 6.6 0 0 6.6 0 -0.02 6.6 0 -0.04 6.6 0 -0.06 6.6 0 -0.08 6.6 0 -0.1 6.6 0 -0.12 6.6 0 -0.14 6.6 0 -0.16 6.6 0 -0.18 6.6 0 -0.2 6.6 0 -0.22 6.6 0 -0.24 6.6 0 -0.26 6.6 0 -0.28 6.6 0 -0.3 6.6 0 -0.32 6.6 0 -0.34 6.6 0 -0.36 6.6 0 -0.38 6.6 0 -0.4 6.6 0 -0.42 6.6 0 -0.44 6.6 0 -0.46 6.6 0 -0.48 6.6 0 -0.5 6.6 0 -0.52 6.6 0 -0.54 6.6 0 -0.56 6.6 0 -0.58 6.6 0 -0.6 6.6 0 -0.62 6.6 0 -0.64 6.6 0 -0.66 6.6 0 -0.68 6.6 0 -0.7 6.6 0 -0.72 6.6 0 -0.74 6.6 0 -0.76 6.6 0 -0.78 6.6 0 -0.8 6.6 0 -0.82 6.6 0 -0.84 6.6 0 -0.86 6.6 0 -0.88 6.6 0 -0.9 6.6 0 -0.92 6.6 0 -0.94 6.6 0 -0.96 6.6 0 -0.98 6.6 0 0.98 6.66667 0 0.96 6.66667 0 0.94 6.66667 0 0.92 6.66667 0 0.9 6.66667 0 0.88 6.66667 0 0.86 6.66667 0 0.84 6.66667 0 0.82 6.66667 0 0.8 6.66667 0 0.78 6.66667 0 0.76 6.66667 0 0.74 6.66667 0 0.72 6.66667 0 0.7 6.66667 0 0.68 6.66667 0 0.66 6.66667 0 0.64 6.66667 0 0.62 6.66667 0 0.6 6.66667 0 0.58 6.66667 0 0.56 6.66667 0 0.54 6.66667 0 0.52 6.66667 0 0.5 6.66667 0 0.48 6.66667 0 0.46 6.66667 0 0.44 6.66667 0 0.42 6.66667 0 0.4 6.66667 0 0.38 6.66667 0 0.36 6.66667 0 0.34 6.66667 0 0.32 6.66667 0 0.3 6.66667 0 0.28 6.66667 0 0.26 6.66667 0 0.24 6.66667 0 0.22 6.66667 0 0.2 6.66667 0 0.18 6.66667 0 0.16 6.66667 0 0.14 6.66667 0 0.12 6.66667 0 0.1 6.66667 0 0.08 6.66667 0 0.06 6.66667 0 0.04 6.66667 0 0.02 6.66667 0 5.55112e-17 6.66667 0 -0.02 6.66667 0 -0.04 6.66667 0 -0.06 6.66667 0 -0.08 6.66667 0 -0.1 6.66667 0 -0.12 6.66667 0 -0.14 6.66667 0 -0.16 6.66667 0 -0.18 6.66667 0 -0.2 6.66667 0 -0.22 6.66667 0 -0.24 6.66667 0 -0.26 6.66667 0 -0.28 6.66667 0 -0.3 6.66667 0 -0.32 6.66667 0 -0.34 6.66667 0 -0.36 6.66667 0 -0.38 6.66667 0 -0.4 6.66667 0 -0.42 6.66667 0 -0.44 6.66667 0 -0.46 6.66667 0 -0.48 6.66667 0 -0.5 6.66667 0 -0.52 6.66667 0 -0.54 6.66667 0 -0.56 6.66667 0 -0.58 6.66667 0 -0.6 6.66667 0 -0.62 6.66667 0 -0.64 6.66667 0 -0.66 6.66667 0 -0.68 6.66667 0 -0.7 6.66667 0 -0.72 6.66667 0 -0.74 6.66667 0 -0.76 6.66667 0 -0.78 6.66667 0 -0.8 6.66667 0 -0.82 6.66667 0 -0.84 6.66667 0 -0.86 6.66667 0 -0.88 6.66667 0 -0.9 6.66667 0 -0.92 6.66667 0 -0.94 6.66667 0 -0.96 6.66667 0 -0.98 6.66667 0 0.98 6.73333 0 0.96 6.73333 0 0.94 6.73333 0 0.92 6.73333 0 0.9 6.73333 0 0.88 6.73333 0 0.86 6.73333 0 0.84 6.73333 0 0.82 6.73333 0 0.8 6.73333 0 0.78 6.73333 0 0.76 6.73333 0 0.74 6.73333 0 0.72 6.73333 0 0.7 6.73333 0 0.68 6.73333 0 0.66 6.73333 0 0.64 6.73333 0 0.62 6.73333 0 0.6 6.73333 0 0.58 6.73333 0 0.56 6.73333 0 0.54 6.73333 0 0.52 6.73333 0 0.5 6.73333 0 0.48 6.73333 0 0.46 6.73333 0 0.44 6.73333 0 0.42 6.73333 0 0.4 6.73333 0 0.38 6.73333 0 0.36 6.73333 0 0.34 6.73333 0 0.32 6.73333 0 0.3 6.73333 0 0.28 6.73333 0 0.26 6.73333 0 0.24 6.73333 0 0.22 6.73333 0 0.2 6.73333 0 0.18 6.73333 0 0.16 6.73333 0 0.14 6.73333 0 0.12 6.73333 0 0.1 6.73333 0 0.08 6.73333 0 0.06 6.73333 0 0.04 6.73333 0 0.02 6.73333 0 5.55112e-17 6.73333 0 -0.02 6.73333 0 -0.04 6.73333 0 -0.06 6.73333 0 -0.08 6.73333 0 -0.1 6.73333 0 -0.12 6.73333 0 -0.14 6.73333 0 -0.16 6.73333 0 -0.18 6.73333 0 -0.2 6.73333 0 -0.22 6.73333 0 -0.24 6.73333 0 -0.26 6.73333 0 -0.28 6.73333 0 -0.3 6.73333 0 -0.32 6.73333 0 -0.34 6.73333 0 -0.36 6.73333 0 -0.38 6.73333 0 -0.4 6.73333 0 -0.42 6.73333 0 -0.44 6.73333 0 -0.46 6.73333 0 -0.48 6.73333 0 -0.5 6.73333 0 -0.52 6.73333 0 -0.54 6.73333 0 -0.56 6.73333 0 -0.58 6.73333 0 -0.6 6.73333 0 -0.62 6.73333 0 -0.64 6.73333 0 -0.66 6.73333 0 -0.68 6.73333 0 -0.7 6.73333 0 -0.72 6.73333 0 -0.74 6.73333 0 -0.76 6.73333 0 -0.78 6.73333 0 -0.8 6.73333 0 -0.82 6.73333 0 -0.84 6.73333 0 -0.86 6.73333 0 -0.88 6.73333 0 -0.9 6.73333 0 -0.92 6.73333 0 -0.94 6.73333 0 -0.96 6.73333 0 -0.98 6.73333 0 0.98 6.8 0 0.96 6.8 0 0.94 6.8 0 0.92 6.8 0 0.9 6.8 0 0.88 6.8 0 0.86 6.8 0 0.84 6.8 0 0.82 6.8 0 0.8 6.8 0 0.78 6.8 0 0.76 6.8 0 0.74 6.8 0 0.72 6.8 0 0.7 6.8 0 0.68 6.8 0 0.66 6.8 0 0.64 6.8 0 0.62 6.8 0 0.6 6.8 0 0.58 6.8 0 0.56 6.8 0 0.54 6.8 0 0.52 6.8 0 0.5 6.8 0 0.48 6.8 0 0.46 6.8 0 0.44 6.8 0 0.42 6.8 0 0.4 6.8 0 0.38 6.8 0 0.36 6.8 0 0.34 6.8 0 0.32 6.8 0 0.3 6.8 0 0.28 6.8 0 0.26 6.8 0 0.24 6.8 0 0.22 6.8 0 0.2 6.8 0 0.18 6.8 0 0.16 6.8 0 0.14 6.8 0 0.12 6.8 0 0.1 6.8 0 0.08 6.8 0 0.06 6.8 0 0.04 6.8 0 0.02 6.8 0 5.55112e-17 6.8 0 -0.02 6.8 0 -0.04 6.8 0 -0.06 6.8 0 -0.08 6.8 0 -0.1 6.8 0 -0.12 6.8 0 -0.14 6.8 0 -0.16 6.8 0 -0.18 6.8 0 -0.2 6.8 0 -0.22 6.8 0 -0.24 6.8 0 -0.26 6.8 0 -0.28 6.8 0 -0.3 6.8 0 -0.32 6.8 0 -0.34 6.8 0 -0.36 6.8 0 -0.38 6.8 0 -0.4 6.8 0 -0.42 6.8 0 -0.44 6.8 0 -0.46 6.8 0 -0.48 6.8 0 -0.5 6.8 0 -0.52 6.8 0 -0.54 6.8 0 -0.56 6.8 0 -0.58 6.8 0 -0.6 6.8 0 -0.62 6.8 0 -0.64 6.8 0 -0.66 6.8 0 -0.68 6.8 0 -0.7 6.8 0 -0.72 6.8 0 -0.74 6.8 0 -0.76 6.8 0 -0.78 6.8 0 -0.8 6.8 0 -0.82 6.8 0 -0.84 6.8 0 -0.86 6.8 0 -0.88 6.8 0 -0.9 6.8 0 -0.92 6.8 0 -0.94 6.8 0 -0.96 6.8 0 -0.98 6.8 0 0.98 6.86667 0 0.96 6.86667 0 0.94 6.86667 0 0.92 6.86667 0 0.9 6.86667 0 0.88 6.86667 0 0.86 6.86667 0 0.84 6.86667 0 0.82 6.86667 0 0.8 6.86667 0 0.78 6.86667 0 0.76 6.86667 0 0.74 6.86667 0 0.72 6.86667 0 0.7 6.86667 0 0.68 6.86667 0 0.66 6.86667 0 0.64 6.86667 0 0.62 6.86667 0 0.6 6.86667 0 0.58 6.86667 0 0.56 6.86667 0 0.54 6.86667 0 0.52 6.86667 0 0.5 6.86667 0 0.48 6.86667 0 0.46 6.86667 0 0.44 6.86667 0 0.42 6.86667 0 0.4 6.86667 0 0.38 6.86667 0 0.36 6.86667 0 0.34 6.86667 0 0.32 6.86667 0 0.3 6.86667 0 0.28 6.86667 0 0.26 6.86667 0 0.24 6.86667 0 0.22 6.86667 0 0.2 6.86667 0 0.18 6.86667 0 0.16 6.86667 0 0.14 6.86667 0 0.12 6.86667 0 0.1 6.86667 0 0.08 6.86667 0 0.06 6.86667 0 0.04 6.86667 0 0.02 6.86667 0 5.55112e-17 6.86667 0 -0.02 6.86667 0 -0.04 6.86667 0 -0.06 6.86667 0 -0.08 6.86667 0 -0.1 6.86667 0 -0.12 6.86667 0 -0.14 6.86667 0 -0.16 6.86667 0 -0.18 6.86667 0 -0.2 6.86667 0 -0.22 6.86667 0 -0.24 6.86667 0 -0.26 6.86667 0 -0.28 6.86667 0 -0.3 6.86667 0 -0.32 6.86667 0 -0.34 6.86667 0 -0.36 6.86667 0 -0.38 6.86667 0 -0.4 6.86667 0 -0.42 6.86667 0 -0.44 6.86667 0 -0.46 6.86667 0 -0.48 6.86667 0 -0.5 6.86667 0 -0.52 6.86667 0 -0.54 6.86667 0 -0.56 6.86667 0 -0.58 6.86667 0 -0.6 6.86667 0 -0.62 6.86667 0 -0.64 6.86667 0 -0.66 6.86667 0 -0.68 6.86667 0 -0.7 6.86667 0 -0.72 6.86667 0 -0.74 6.86667 0 -0.76 6.86667 0 -0.78 6.86667 0 -0.8 6.86667 0 -0.82 6.86667 0 -0.84 6.86667 0 -0.86 6.86667 0 -0.88 6.86667 0 -0.9 6.86667 0 -0.92 6.86667 0 -0.94 6.86667 0 -0.96 6.86667 0 -0.98 6.86667 0 0.98 6.93333 0 0.96 6.93333 0 0.94 6.93333 0 0.92 6.93333 0 0.9 6.93333 0 0.88 6.93333 0 0.86 6.93333 0 0.84 6.93333 0 0.82 6.93333 0 0.8 6.93333 0 0.78 6.93333 0 0.76 6.93333 0 0.74 6.93333 0 0.72 6.93333 0 0.7 6.93333 0 0.68 6.93333 0 0.66 6.93333 0 0.64 6.93333 0 0.62 6.93333 0 0.6 6.93333 0 0.58 6.93333 0 0.56 6.93333 0 0.54 6.93333 0 0.52 6.93333 0 0.5 6.93333 0 0.48 6.93333 0 0.46 6.93333 0 0.44 6.93333 0 0.42 6.93333 0 0.4 6.93333 0 0.38 6.93333 0 0.36 6.93333 0 0.34 6.93333 0 0.32 6.93333 0 0.3 6.93333 0 0.28 6.93333 0 0.26 6.93333 0 0.24 6.93333 0 0.22 6.93333 0 0.2 6.93333 0 0.18 6.93333 0 0.16 6.93333 0 0.14 6.93333 0 0.12 6.93333 0 0.1 6.93333 0 0.08 6.93333 0 0.06 6.93333 0 0.04 6.93333 0 0.02 6.93333 0 5.55112e-17 6.93333 0 -0.02 6.93333 0 -0.04 6.93333 0 -0.06 6.93333 0 -0.08 6.93333 0 -0.1 6.93333 0 -0.12 6.93333 0 -0.14 6.93333 0 -0.16 6.93333 0 -0.18 6.93333 0 -0.2 6.93333 0 -0.22 6.93333 0 -0.24 6.93333 0 -0.26 6.93333 0 -0.28 6.93333 0 -0.3 6.93333 0 -0.32 6.93333 0 -0.34 6.93333 0 -0.36 6.93333 0 -0.38 6.93333 0 -0.4 6.93333 0 -0.42 6.93333 0 -0.44 6.93333 0 -0.46 6.93333 0 -0.48 6.93333 0 -0.5 6.93333 0 -0.52 6.93333 0 -0.54 6.93333 0 -0.56 6.93333 0 -0.58 6.93333 0 -0.6 6.93333 0 -0.62 6.93333 0 -0.64 6.93333 0 -0.66 6.93333 0 -0.68 6.93333 0 -0.7 6.93333 0 -0.72 6.93333 0 -0.74 6.93333 0 -0.76 6.93333 0 -0.78 6.93333 0 -0.8 6.93333 0 -0.82 6.93333 0 -0.84 6.93333 0 -0.86 6.93333 0 -0.88 6.93333 0 -0.9 6.93333 0 -0.92 6.93333 0 -0.94 6.93333 0 -0.96 6.93333 0 -0.98 6.93333 0 0.98 7 0 0.96 7 0 0.94 7 0 0.92 7 0 0.9 7 0 0.88 7 0 0.86 7 0 0.84 7 0 0.82 7 0 0.8 7 0 0.78 7 0 0.76 7 0 0.74 7 0 0.72 7 0 0.7 7 0 0.68 7 0 0.66 7 0 0.64 7 0 0.62 7 0 0.6 7 0 0.58 7 0 0.56 7 0 0.54 7 0 0.52 7 0 0.5 7 0 0.48 7 0 0.46 7 0 0.44 7 0 0.42 7 0 0.4 7 0 0.38 7 0 0.36 7 0 0.34 7 0 0.32 7 0 0.3 7 0 0.28 7 0 0.26 7 0 0.24 7 0 0.22 7 0 0.2 7 0 0.18 7 0 0.16 7 0 0.14 7 0 0.12 7 0 0.1 7 0 0.08 7 0 0.06 7 0 0.04 7 0 0.02 7 0 5.55112e-17 7 0 -0.02 7 0 -0.04 7 0 -0.06 7 0 -0.08 7 0 -0.1 7 0 -0.12 7 0 -0.14 7 0 -0.16 7 0 -0.18 7 0 -0.2 7 0 -0.22 7 0 -0.24 7 0 -0.26 7 0 -0.28 7 0 -0.3 7 0 -0.32 7 0 -0.34 7 0 -0.36 7 0 -0.38 7 0 -0.4 7 0 -0.42 7 0 -0.44 7 0 -0.46 7 0 -0.48 7 0 -0.5 7 0 -0.52 7 0 -0.54 7 0 -0.56 7 0 -0.58 7 0 -0.6 7 0 -0.62 7 0 -0.64 7 0 -0.66 7 0 -0.68 7 0 -0.7 7 0 -0.72 7 0 -0.74 7 0 -0.76 7 0 -0.78 7 0 -0.8 7 0 -0.82 7 0 -0.84 7 0 -0.86 7 0 -0.88 7 0 -0.9 7 0 -0.92 7 0 -0.94 7 0 -0.96 7 0 -0.98 7 0 0.98 7.06667 0 0.96 7.06667 0 0.94 7.06667 0 0.92 7.06667 0 0.9 7.06667 0 0.88 7.06667 0 0.86 7.06667 0 0.84 7.06667 0 0.82 7.06667 0 0.8 7.06667 0 0.78 7.06667 0 0.76 7.06667 0 0.74 7.06667 0 0.72 7.06667 0 0.7 7.06667 0 0.68 7.06667 0 0.66 7.06667 0 0.64 7.06667 0 0.62 7.06667 0 0.6 7.06667 0 0.58 7.06667 0 0.56 7.06667 0 0.54 7.06667 0 0.52 7.06667 0 0.5 7.06667 0 0.48 7.06667 0 0.46 7.06667 0 0.44 7.06667 0 0.42 7.06667 0 0.4 7.06667 0 0.38 7.06667 0 0.36 7.06667 0 0.34 7.06667 0 0.32 7.06667 0 0.3 7.06667 0 0.28 7.06667 0 0.26 7.06667 0 0.24 7.06667 0 0.22 7.06667 0 0.2 7.06667 0 0.18 7.06667 0 0.16 7.06667 0 0.14 7.06667 0 0.12 7.06667 0 0.1 7.06667 0 0.08 7.06667 0 0.06 7.06667 0 0.04 7.06667 0 0.02 7.06667 0 5.55112e-17 7.06667 0 -0.02 7.06667 0 -0.04 7.06667 0 -0.06 7.06667 0 -0.08 7.06667 0 -0.1 7.06667 0 -0.12 7.06667 0 -0.14 7.06667 0 -0.16 7.06667 0 -0.18 7.06667 0 -0.2 7.06667 0 -0.22 7.06667 0 -0.24 7.06667 0 -0.26 7.06667 0 -0.28 7.06667 0 -0.3 7.06667 0 -0.32 7.06667 0 -0.34 7.06667 0 -0.36 7.06667 0 -0.38 7.06667 0 -0.4 7.06667 0 -0.42 7.06667 0 -0.44 7.06667 0 -0.46 7.06667 0 -0.48 7.06667 0 -0.5 7.06667 0 -0.52 7.06667 0 -0.54 7.06667 0 -0.56 7.06667 0 -0.58 7.06667 0 -0.6 7.06667 0 -0.62 7.06667 0 -0.64 7.06667 0 -0.66 7.06667 0 -0.68 7.06667 0 -0.7 7.06667 0 -0.72 7.06667 0 -0.74 7.06667 0 -0.76 7.06667 0 -0.78 7.06667 0 -0.8 7.06667 0 -0.82 7.06667 0 -0.84 7.06667 0 -0.86 7.06667 0 -0.88 7.06667 0 -0.9 7.06667 0 -0.92 7.06667 0 -0.94 7.06667 0 -0.96 7.06667 0 -0.98 7.06667 0 0.98 7.13333 0 0.96 7.13333 0 0.94 7.13333 0 0.92 7.13333 0 0.9 7.13333 0 0.88 7.13333 0 0.86 7.13333 0 0.84 7.13333 0 0.82 7.13333 0 0.8 7.13333 0 0.78 7.13333 0 0.76 7.13333 0 0.74 7.13333 0 0.72 7.13333 0 0.7 7.13333 0 0.68 7.13333 0 0.66 7.13333 0 0.64 7.13333 0 0.62 7.13333 0 0.6 7.13333 0 0.58 7.13333 0 0.56 7.13333 0 0.54 7.13333 0 0.52 7.13333 0 0.5 7.13333 0 0.48 7.13333 0 0.46 7.13333 0 0.44 7.13333 0 0.42 7.13333 0 0.4 7.13333 0 0.38 7.13333 0 0.36 7.13333 0 0.34 7.13333 0 0.32 7.13333 0 0.3 7.13333 0 0.28 7.13333 0 0.26 7.13333 0 0.24 7.13333 0 0.22 7.13333 0 0.2 7.13333 0 0.18 7.13333 0 0.16 7.13333 0 0.14 7.13333 0 0.12 7.13333 0 0.1 7.13333 0 0.08 7.13333 0 0.06 7.13333 0 0.04 7.13333 0 0.02 7.13333 0 5.55112e-17 7.13333 0 -0.02 7.13333 0 -0.04 7.13333 0 -0.06 7.13333 0 -0.08 7.13333 0 -0.1 7.13333 0 -0.12 7.13333 0 -0.14 7.13333 0 -0.16 7.13333 0 -0.18 7.13333 0 -0.2 7.13333 0 -0.22 7.13333 0 -0.24 7.13333 0 -0.26 7.13333 0 -0.28 7.13333 0 -0.3 7.13333 0 -0.32 7.13333 0 -0.34 7.13333 0 -0.36 7.13333 0 -0.38 7.13333 0 -0.4 7.13333 0 -0.42 7.13333 0 -0.44 7.13333 0 -0.46 7.13333 0 -0.48 7.13333 0 -0.5 7.13333 0 -0.52 7.13333 0 -0.54 7.13333 0 -0.56 7.13333 0 -0.58 7.13333 0 -0.6 7.13333 0 -0.62 7.13333 0 -0.64 7.13333 0 -0.66 7.13333 0 -0.68 7.13333 0 -0.7 7.13333 0 -0.72 7.13333 0 -0.74 7.13333 0 -0.76 7.13333 0 -0.78 7.13333 0 -0.8 7.13333 0 -0.82 7.13333 0 -0.84 7.13333 0 -0.86 7.13333 0 -0.88 7.13333 0 -0.9 7.13333 0 -0.92 7.13333 0 -0.94 7.13333 0 -0.96 7.13333 0 -0.98 7.13333 0 0.98 7.2 0 0.96 7.2 0 0.94 7.2 0 0.92 7.2 0 0.9 7.2 0 0.88 7.2 0 0.86 7.2 0 0.84 7.2 0 0.82 7.2 0 0.8 7.2 0 0.78 7.2 0 0.76 7.2 0 0.74 7.2 0 0.72 7.2 0 0.7 7.2 0 0.68 7.2 0 0.66 7.2 0 0.64 7.2 0 0.62 7.2 0 0.6 7.2 0 0.58 7.2 0 0.56 7.2 0 0.54 7.2 0 0.52 7.2 0 0.5 7.2 0 0.48 7.2 0 0.46 7.2 0 0.44 7.2 0 0.42 7.2 0 0.4 7.2 0 0.38 7.2 0 0.36 7.2 0 0.34 7.2 0 0.32 7.2 0 0.3 7.2 0 0.28 7.2 0 0.26 7.2 0 0.24 7.2 0 0.22 7.2 0 0.2 7.2 0 0.18 7.2 0 0.16 7.2 0 0.14 7.2 0 0.12 7.2 0 0.1 7.2 0 0.08 7.2 0 0.06 7.2 0 0.04 7.2 0 0.02 7.2 0 5.55112e-17 7.2 0 -0.02 7.2 0 -0.04 7.2 0 -0.06 7.2 0 -0.08 7.2 0 -0.1 7.2 0 -0.12 7.2 0 -0.14 7.2 0 -0.16 7.2 0 -0.18 7.2 0 -0.2 7.2 0 -0.22 7.2 0 -0.24 7.2 0 -0.26 7.2 0 -0.28 7.2 0 -0.3 7.2 0 -0.32 7.2 0 -0.34 7.2 0 -0.36 7.2 0 -0.38 7.2 0 -0.4 7.2 0 -0.42 7.2 0 -0.44 7.2 0 -0.46 7.2 0 -0.48 7.2 0 -0.5 7.2 0 -0.52 7.2 0 -0.54 7.2 0 -0.56 7.2 0 -0.58 7.2 0 -0.6 7.2 0 -0.62 7.2 0 -0.64 7.2 0 -0.66 7.2 0 -0.68 7.2 0 -0.7 7.2 0 -0.72 7.2 0 -0.74 7.2 0 -0.76 7.2 0 -0.78 7.2 0 -0.8 7.2 0 -0.82 7.2 0 -0.84 7.2 0 -0.86 7.2 0 -0.88 7.2 0 -0.9 7.2 0 -0.92 7.2 0 -0.94 7.2 0 -0.96 7.2 0 -0.98 7.2 0 0.98 7.26667 0 0.96 7.26667 0 0.94 7.26667 0 0.92 7.26667 0 0.9 7.26667 0 0.88 7.26667 0 0.86 7.26667 0 0.84 7.26667 0 0.82 7.26667 0 0.8 7.26667 0 0.78 7.26667 0 0.76 7.26667 0 0.74 7.26667 0 0.72 7.26667 0 0.7 7.26667 0 0.68 7.26667 0 0.66 7.26667 0 0.64 7.26667 0 0.62 7.26667 0 0.6 7.26667 0 0.58 7.26667 0 0.56 7.26667 0 0.54 7.26667 0 0.52 7.26667 0 0.5 7.26667 0 0.48 7.26667 0 0.46 7.26667 0 0.44 7.26667 0 0.42 7.26667 0 0.4 7.26667 0 0.38 7.26667 0 0.36 7.26667 0 0.34 7.26667 0 0.32 7.26667 0 0.3 7.26667 0 0.28 7.26667 0 0.26 7.26667 0 0.24 7.26667 0 0.22 7.26667 0 0.2 7.26667 0 0.18 7.26667 0 0.16 7.26667 0 0.14 7.26667 0 0.12 7.26667 0 0.1 7.26667 0 0.08 7.26667 0 0.06 7.26667 0 0.04 7.26667 0 0.02 7.26667 0 5.55112e-17 7.26667 0 -0.02 7.26667 0 -0.04 7.26667 0 -0.06 7.26667 0 -0.08 7.26667 0 -0.1 7.26667 0 -0.12 7.26667 0 -0.14 7.26667 0 -0.16 7.26667 0 -0.18 7.26667 0 -0.2 7.26667 0 -0.22 7.26667 0 -0.24 7.26667 0 -0.26 7.26667 0 -0.28 7.26667 0 -0.3 7.26667 0 -0.32 7.26667 0 -0.34 7.26667 0 -0.36 7.26667 0 -0.38 7.26667 0 -0.4 7.26667 0 -0.42 7.26667 0 -0.44 7.26667 0 -0.46 7.26667 0 -0.48 7.26667 0 -0.5 7.26667 0 -0.52 7.26667 0 -0.54 7.26667 0 -0.56 7.26667 0 -0.58 7.26667 0 -0.6 7.26667 0 -0.62 7.26667 0 -0.64 7.26667 0 -0.66 7.26667 0 -0.68 7.26667 0 -0.7 7.26667 0 -0.72 7.26667 0 -0.74 7.26667 0 -0.76 7.26667 0 -0.78 7.26667 0 -0.8 7.26667 0 -0.82 7.26667 0 -0.84 7.26667 0 -0.86 7.26667 0 -0.88 7.26667 0 -0.9 7.26667 0 -0.92 7.26667 0 -0.94 7.26667 0 -0.96 7.26667 0 -0.98 7.26667 0 0.98 7.33333 0 0.96 7.33333 0 0.94 7.33333 0 0.92 7.33333 0 0.9 7.33333 0 0.88 7.33333 0 0.86 7.33333 0 0.84 7.33333 0 0.82 7.33333 0 0.8 7.33333 0 0.78 7.33333 0 0.76 7.33333 0 0.74 7.33333 0 0.72 7.33333 0 0.7 7.33333 0 0.68 7.33333 0 0.66 7.33333 0 0.64 7.33333 0 0.62 7.33333 0 0.6 7.33333 0 0.58 7.33333 0 0.56 7.33333 0 0.54 7.33333 0 0.52 7.33333 0 0.5 7.33333 0 0.48 7.33333 0 0.46 7.33333 0 0.44 7.33333 0 0.42 7.33333 0 0.4 7.33333 0 0.38 7.33333 0 0.36 7.33333 0 0.34 7.33333 0 0.32 7.33333 0 0.3 7.33333 0 0.28 7.33333 0 0.26 7.33333 0 0.24 7.33333 0 0.22 7.33333 0 0.2 7.33333 0 0.18 7.33333 0 0.16 7.33333 0 0.14 7.33333 0 0.12 7.33333 0 0.1 7.33333 0 0.08 7.33333 0 0.06 7.33333 0 0.04 7.33333 0 0.02 7.33333 0 5.55112e-17 7.33333 0 -0.02 7.33333 0 -0.04 7.33333 0 -0.06 7.33333 0 -0.08 7.33333 0 -0.1 7.33333 0 -0.12 7.33333 0 -0.14 7.33333 0 -0.16 7.33333 0 -0.18 7.33333 0 -0.2 7.33333 0 -0.22 7.33333 0 -0.24 7.33333 0 -0.26 7.33333 0 -0.28 7.33333 0 -0.3 7.33333 0 -0.32 7.33333 0 -0.34 7.33333 0 -0.36 7.33333 0 -0.38 7.33333 0 -0.4 7.33333 0 -0.42 7.33333 0 -0.44 7.33333 0 -0.46 7.33333 0 -0.48 7.33333 0 -0.5 7.33333 0 -0.52 7.33333 0 -0.54 7.33333 0 -0.56 7.33333 0 -0.58 7.33333 0 -0.6 7.33333 0 -0.62 7.33333 0 -0.64 7.33333 0 -0.66 7.33333 0 -0.68 7.33333 0 -0.7 7.33333 0 -0.72 7.33333 0 -0.74 7.33333 0 -0.76 7.33333 0 -0.78 7.33333 0 -0.8 7.33333 0 -0.82 7.33333 0 -0.84 7.33333 0 -0.86 7.33333 0 -0.88 7.33333 0 -0.9 7.33333 0 -0.92 7.33333 0 -0.94 7.33333 0 -0.96 7.33333 0 -0.98 7.33333 0 0.98 7.4 0 0.96 7.4 0 0.94 7.4 0 0.92 7.4 0 0.9 7.4 0 0.88 7.4 0 0.86 7.4 0 0.84 7.4 0 0.82 7.4 0 0.8 7.4 0 0.78 7.4 0 0.76 7.4 0 0.74 7.4 0 0.72 7.4 0 0.7 7.4 0 0.68 7.4 0 0.66 7.4 0 0.64 7.4 0 0.62 7.4 0 0.6 7.4 0 0.58 7.4 0 0.56 7.4 0 0.54 7.4 0 0.52 7.4 0 0.5 7.4 0 0.48 7.4 0 0.46 7.4 0 0.44 7.4 0 0.42 7.4 0 0.4 7.4 0 0.38 7.4 0 0.36 7.4 0 0.34 7.4 0 0.32 7.4 0 0.3 7.4 0 0.28 7.4 0 0.26 7.4 0 0.24 7.4 0 0.22 7.4 0 0.2 7.4 0 0.18 7.4 0 0.16 7.4 0 0.14 7.4 0 0.12 7.4 0 0.1 7.4 0 0.08 7.4 0 0.06 7.4 0 0.04 7.4 0 0.02 7.4 0 5.55112e-17 7.4 0 -0.02 7.4 0 -0.04 7.4 0 -0.06 7.4 0 -0.08 7.4 0 -0.1 7.4 0 -0.12 7.4 0 -0.14 7.4 0 -0.16 7.4 0 -0.18 7.4 0 -0.2 7.4 0 -0.22 7.4 0 -0.24 7.4 0 -0.26 7.4 0 -0.28 7.4 0 -0.3 7.4 0 -0.32 7.4 0 -0.34 7.4 0 -0.36 7.4 0 -0.38 7.4 0 -0.4 7.4 0 -0.42 7.4 0 -0.44 7.4 0 -0.46 7.4 0 -0.48 7.4 0 -0.5 7.4 0 -0.52 7.4 0 -0.54 7.4 0 -0.56 7.4 0 -0.58 7.4 0 -0.6 7.4 0 -0.62 7.4 0 -0.64 7.4 0 -0.66 7.4 0 -0.68 7.4 0 -0.7 7.4 0 -0.72 7.4 0 -0.74 7.4 0 -0.76 7.4 0 -0.78 7.4 0 -0.8 7.4 0 -0.82 7.4 0 -0.84 7.4 0 -0.86 7.4 0 -0.88 7.4 0 -0.9 7.4 0 -0.92 7.4 0 -0.94 7.4 0 -0.96 7.4 0 -0.98 7.4 0 0.98 7.46667 0 0.96 7.46667 0 0.94 7.46667 0 0.92 7.46667 0 0.9 7.46667 0 0.88 7.46667 0 0.86 7.46667 0 0.84 7.46667 0 0.82 7.46667 0 0.8 7.46667 0 0.78 7.46667 0 0.76 7.46667 0 0.74 7.46667 0 0.72 7.46667 0 0.7 7.46667 0 0.68 7.46667 0 0.66 7.46667 0 0.64 7.46667 0 0.62 7.46667 0 0.6 7.46667 0 0.58 7.46667 0 0.56 7.46667 0 0.54 7.46667 0 0.52 7.46667 0 0.5 7.46667 0 0.48 7.46667 0 0.46 7.46667 0 0.44 7.46667 0 0.42 7.46667 0 0.4 7.46667 0 0.38 7.46667 0 0.36 7.46667 0 0.34 7.46667 0 0.32 7.46667 0 0.3 7.46667 0 0.28 7.46667 0 0.26 7.46667 0 0.24 7.46667 0 0.22 7.46667 0 0.2 7.46667 0 0.18 7.46667 0 0.16 7.46667 0 0.14 7.46667 0 0.12 7.46667 0 0.1 7.46667 0 0.08 7.46667 0 0.06 7.46667 0 0.04 7.46667 0 0.02 7.46667 0 5.55112e-17 7.46667 0 -0.02 7.46667 0 -0.04 7.46667 0 -0.06 7.46667 0 -0.08 7.46667 0 -0.1 7.46667 0 -0.12 7.46667 0 -0.14 7.46667 0 -0.16 7.46667 0 -0.18 7.46667 0 -0.2 7.46667 0 -0.22 7.46667 0 -0.24 7.46667 0 -0.26 7.46667 0 -0.28 7.46667 0 -0.3 7.46667 0 -0.32 7.46667 0 -0.34 7.46667 0 -0.36 7.46667 0 -0.38 7.46667 0 -0.4 7.46667 0 -0.42 7.46667 0 -0.44 7.46667 0 -0.46 7.46667 0 -0.48 7.46667 0 -0.5 7.46667 0 -0.52 7.46667 0 -0.54 7.46667 0 -0.56 7.46667 0 -0.58 7.46667 0 -0.6 7.46667 0 -0.62 7.46667 0 -0.64 7.46667 0 -0.66 7.46667 0 -0.68 7.46667 0 -0.7 7.46667 0 -0.72 7.46667 0 -0.74 7.46667 0 -0.76 7.46667 0 -0.78 7.46667 0 -0.8 7.46667 0 -0.82 7.46667 0 -0.84 7.46667 0 -0.86 7.46667 0 -0.88 7.46667 0 -0.9 7.46667 0 -0.92 7.46667 0 -0.94 7.46667 0 -0.96 7.46667 0 -0.98 7.46667 0 0.98 7.53333 0 0.96 7.53333 0 0.94 7.53333 0 0.92 7.53333 0 0.9 7.53333 0 0.88 7.53333 0 0.86 7.53333 0 0.84 7.53333 0 0.82 7.53333 0 0.8 7.53333 0 0.78 7.53333 0 0.76 7.53333 0 0.74 7.53333 0 0.72 7.53333 0 0.7 7.53333 0 0.68 7.53333 0 0.66 7.53333 0 0.64 7.53333 0 0.62 7.53333 0 0.6 7.53333 0 0.58 7.53333 0 0.56 7.53333 0 0.54 7.53333 0 0.52 7.53333 0 0.5 7.53333 0 0.48 7.53333 0 0.46 7.53333 0 0.44 7.53333 0 0.42 7.53333 0 0.4 7.53333 0 0.38 7.53333 0 0.36 7.53333 0 0.34 7.53333 0 0.32 7.53333 0 0.3 7.53333 0 0.28 7.53333 0 0.26 7.53333 0 0.24 7.53333 0 0.22 7.53333 0 0.2 7.53333 0 0.18 7.53333 0 0.16 7.53333 0 0.14 7.53333 0 0.12 7.53333 0 0.1 7.53333 0 0.08 7.53333 0 0.06 7.53333 0 0.04 7.53333 0 0.02 7.53333 0 5.55112e-17 7.53333 0 -0.02 7.53333 0 -0.04 7.53333 0 -0.06 7.53333 0 -0.08 7.53333 0 -0.1 7.53333 0 -0.12 7.53333 0 -0.14 7.53333 0 -0.16 7.53333 0 -0.18 7.53333 0 -0.2 7.53333 0 -0.22 7.53333 0 -0.24 7.53333 0 -0.26 7.53333 0 -0.28 7.53333 0 -0.3 7.53333 0 -0.32 7.53333 0 -0.34 7.53333 0 -0.36 7.53333 0 -0.38 7.53333 0 -0.4 7.53333 0 -0.42 7.53333 0 -0.44 7.53333 0 -0.46 7.53333 0 -0.48 7.53333 0 -0.5 7.53333 0 -0.52 7.53333 0 -0.54 7.53333 0 -0.56 7.53333 0 -0.58 7.53333 0 -0.6 7.53333 0 -0.62 7.53333 0 -0.64 7.53333 0 -0.66 7.53333 0 -0.68 7.53333 0 -0.7 7.53333 0 -0.72 7.53333 0 -0.74 7.53333 0 -0.76 7.53333 0 -0.78 7.53333 0 -0.8 7.53333 0 -0.82 7.53333 0 -0.84 7.53333 0 -0.86 7.53333 0 -0.88 7.53333 0 -0.9 7.53333 0 -0.92 7.53333 0 -0.94 7.53333 0 -0.96 7.53333 0 -0.98 7.53333 0 0.98 7.6 0 0.96 7.6 0 0.94 7.6 0 0.92 7.6 0 0.9 7.6 0 0.88 7.6 0 0.86 7.6 0 0.84 7.6 0 0.82 7.6 0 0.8 7.6 0 0.78 7.6 0 0.76 7.6 0 0.74 7.6 0 0.72 7.6 0 0.7 7.6 0 0.68 7.6 0 0.66 7.6 0 0.64 7.6 0 0.62 7.6 0 0.6 7.6 0 0.58 7.6 0 0.56 7.6 0 0.54 7.6 0 0.52 7.6 0 0.5 7.6 0 0.48 7.6 0 0.46 7.6 0 0.44 7.6 0 0.42 7.6 0 0.4 7.6 0 0.38 7.6 0 0.36 7.6 0 0.34 7.6 0 0.32 7.6 0 0.3 7.6 0 0.28 7.6 0 0.26 7.6 0 0.24 7.6 0 0.22 7.6 0 0.2 7.6 0 0.18 7.6 0 0.16 7.6 0 0.14 7.6 0 0.12 7.6 0 0.1 7.6 0 0.08 7.6 0 0.06 7.6 0 0.04 7.6 0 0.02 7.6 0 5.55112e-17 7.6 0 -0.02 7.6 0 -0.04 7.6 0 -0.06 7.6 0 -0.08 7.6 0 -0.1 7.6 0 -0.12 7.6 0 -0.14 7.6 0 -0.16 7.6 0 -0.18 7.6 0 -0.2 7.6 0 -0.22 7.6 0 -0.24 7.6 0 -0.26 7.6 0 -0.28 7.6 0 -0.3 7.6 0 -0.32 7.6 0 -0.34 7.6 0 -0.36 7.6 0 -0.38 7.6 0 -0.4 7.6 0 -0.42 7.6 0 -0.44 7.6 0 -0.46 7.6 0 -0.48 7.6 0 -0.5 7.6 0 -0.52 7.6 0 -0.54 7.6 0 -0.56 7.6 0 -0.58 7.6 0 -0.6 7.6 0 -0.62 7.6 0 -0.64 7.6 0 -0.66 7.6 0 -0.68 7.6 0 -0.7 7.6 0 -0.72 7.6 0 -0.74 7.6 0 -0.76 7.6 0 -0.78 7.6 0 -0.8 7.6 0 -0.82 7.6 0 -0.84 7.6 0 -0.86 7.6 0 -0.88 7.6 0 -0.9 7.6 0 -0.92 7.6 0 -0.94 7.6 0 -0.96 7.6 0 -0.98 7.6 0 0.98 7.66667 0 0.96 7.66667 0 0.94 7.66667 0 0.92 7.66667 0 0.9 7.66667 0 0.88 7.66667 0 0.86 7.66667 0 0.84 7.66667 0 0.82 7.66667 0 0.8 7.66667 0 0.78 7.66667 0 0.76 7.66667 0 0.74 7.66667 0 0.72 7.66667 0 0.7 7.66667 0 0.68 7.66667 0 0.66 7.66667 0 0.64 7.66667 0 0.62 7.66667 0 0.6 7.66667 0 0.58 7.66667 0 0.56 7.66667 0 0.54 7.66667 0 0.52 7.66667 0 0.5 7.66667 0 0.48 7.66667 0 0.46 7.66667 0 0.44 7.66667 0 0.42 7.66667 0 0.4 7.66667 0 0.38 7.66667 0 0.36 7.66667 0 0.34 7.66667 0 0.32 7.66667 0 0.3 7.66667 0 0.28 7.66667 0 0.26 7.66667 0 0.24 7.66667 0 0.22 7.66667 0 0.2 7.66667 0 0.18 7.66667 0 0.16 7.66667 0 0.14 7.66667 0 0.12 7.66667 0 0.1 7.66667 0 0.08 7.66667 0 0.06 7.66667 0 0.04 7.66667 0 0.02 7.66667 0 5.55112e-17 7.66667 0 -0.02 7.66667 0 -0.04 7.66667 0 -0.06 7.66667 0 -0.08 7.66667 0 -0.1 7.66667 0 -0.12 7.66667 0 -0.14 7.66667 0 -0.16 7.66667 0 -0.18 7.66667 0 -0.2 7.66667 0 -0.22 7.66667 0 -0.24 7.66667 0 -0.26 7.66667 0 -0.28 7.66667 0 -0.3 7.66667 0 -0.32 7.66667 0 -0.34 7.66667 0 -0.36 7.66667 0 -0.38 7.66667 0 -0.4 7.66667 0 -0.42 7.66667 0 -0.44 7.66667 0 -0.46 7.66667 0 -0.48 7.66667 0 -0.5 7.66667 0 -0.52 7.66667 0 -0.54 7.66667 0 -0.56 7.66667 0 -0.58 7.66667 0 -0.6 7.66667 0 -0.62 7.66667 0 -0.64 7.66667 0 -0.66 7.66667 0 -0.68 7.66667 0 -0.7 7.66667 0 -0.72 7.66667 0 -0.74 7.66667 0 -0.76 7.66667 0 -0.78 7.66667 0 -0.8 7.66667 0 -0.82 7.66667 0 -0.84 7.66667 0 -0.86 7.66667 0 -0.88 7.66667 0 -0.9 7.66667 0 -0.92 7.66667 0 -0.94 7.66667 0 -0.96 7.66667 0 -0.98 7.66667 0 0.98 7.73333 0 0.96 7.73333 0 0.94 7.73333 0 0.92 7.73333 0 0.9 7.73333 0 0.88 7.73333 0 0.86 7.73333 0 0.84 7.73333 0 0.82 7.73333 0 0.8 7.73333 0 0.78 7.73333 0 0.76 7.73333 0 0.74 7.73333 0 0.72 7.73333 0 0.7 7.73333 0 0.68 7.73333 0 0.66 7.73333 0 0.64 7.73333 0 0.62 7.73333 0 0.6 7.73333 0 0.58 7.73333 0 0.56 7.73333 0 0.54 7.73333 0 0.52 7.73333 0 0.5 7.73333 0 0.48 7.73333 0 0.46 7.73333 0 0.44 7.73333 0 0.42 7.73333 0 0.4 7.73333 0 0.38 7.73333 0 0.36 7.73333 0 0.34 7.73333 0 0.32 7.73333 0 0.3 7.73333 0 0.28 7.73333 0 0.26 7.73333 0 0.24 7.73333 0 0.22 7.73333 0 0.2 7.73333 0 0.18 7.73333 0 0.16 7.73333 0 0.14 7.73333 0 0.12 7.73333 0 0.1 7.73333 0 0.08 7.73333 0 0.06 7.73333 0 0.04 7.73333 0 0.02 7.73333 0 5.55112e-17 7.73333 0 -0.02 7.73333 0 -0.04 7.73333 0 -0.06 7.73333 0 -0.08 7.73333 0 -0.1 7.73333 0 -0.12 7.73333 0 -0.14 7.73333 0 -0.16 7.73333 0 -0.18 7.73333 0 -0.2 7.73333 0 -0.22 7.73333 0 -0.24 7.73333 0 -0.26 7.73333 0 -0.28 7.73333 0 -0.3 7.73333 0 -0.32 7.73333 0 -0.34 7.73333 0 -0.36 7.73333 0 -0.38 7.73333 0 -0.4 7.73333 0 -0.42 7.73333 0 -0.44 7.73333 0 -0.46 7.73333 0 -0.48 7.73333 0 -0.5 7.73333 0 -0.52 7.73333 0 -0.54 7.73333 0 -0.56 7.73333 0 -0.58 7.73333 0 -0.6 7.73333 0 -0.62 7.73333 0 -0.64 7.73333 0 -0.66 7.73333 0 -0.68 7.73333 0 -0.7 7.73333 0 -0.72 7.73333 0 -0.74 7.73333 0 -0.76 7.73333 0 -0.78 7.73333 0 -0.8 7.73333 0 -0.82 7.73333 0 -0.84 7.73333 0 -0.86 7.73333 0 -0.88 7.73333 0 -0.9 7.73333 0 -0.92 7.73333 0 -0.94 7.73333 0 -0.96 7.73333 0 -0.98 7.73333 0 0.98 7.8 0 0.96 7.8 0 0.94 7.8 0 0.92 7.8 0 0.9 7.8 0 0.88 7.8 0 0.86 7.8 0 0.84 7.8 0 0.82 7.8 0 0.8 7.8 0 0.78 7.8 0 0.76 7.8 0 0.74 7.8 0 0.72 7.8 0 0.7 7.8 0 0.68 7.8 0 0.66 7.8 0 0.64 7.8 0 0.62 7.8 0 0.6 7.8 0 0.58 7.8 0 0.56 7.8 0 0.54 7.8 0 0.52 7.8 0 0.5 7.8 0 0.48 7.8 0 0.46 7.8 0 0.44 7.8 0 0.42 7.8 0 0.4 7.8 0 0.38 7.8 0 0.36 7.8 0 0.34 7.8 0 0.32 7.8 0 0.3 7.8 0 0.28 7.8 0 0.26 7.8 0 0.24 7.8 0 0.22 7.8 0 0.2 7.8 0 0.18 7.8 0 0.16 7.8 0 0.14 7.8 0 0.12 7.8 0 0.1 7.8 0 0.08 7.8 0 0.06 7.8 0 0.04 7.8 0 0.02 7.8 0 -5.55112e-17 7.8 0 -0.02 7.8 0 -0.04 7.8 0 -0.06 7.8 0 -0.08 7.8 0 -0.1 7.8 0 -0.12 7.8 0 -0.14 7.8 0 -0.16 7.8 0 -0.18 7.8 0 -0.2 7.8 0 -0.22 7.8 0 -0.24 7.8 0 -0.26 7.8 0 -0.28 7.8 0 -0.3 7.8 0 -0.32 7.8 0 -0.34 7.8 0 -0.36 7.8 0 -0.38 7.8 0 -0.4 7.8 0 -0.42 7.8 0 -0.44 7.8 0 -0.46 7.8 0 -0.48 7.8 0 -0.5 7.8 0 -0.52 7.8 0 -0.54 7.8 0 -0.56 7.8 0 -0.58 7.8 0 -0.6 7.8 0 -0.62 7.8 0 -0.64 7.8 0 -0.66 7.8 0 -0.68 7.8 0 -0.7 7.8 0 -0.72 7.8 0 -0.74 7.8 0 -0.76 7.8 0 -0.78 7.8 0 -0.8 7.8 0 -0.82 7.8 0 -0.84 7.8 0 -0.86 7.8 0 -0.88 7.8 0 -0.9 7.8 0 -0.92 7.8 0 -0.94 7.8 0 -0.96 7.8 0 -0.98 7.8 0 0.98 7.86667 0 0.96 7.86667 0 0.94 7.86667 0 0.92 7.86667 0 0.9 7.86667 0 0.88 7.86667 0 0.86 7.86667 0 0.84 7.86667 0 0.82 7.86667 0 0.8 7.86667 0 0.78 7.86667 0 0.76 7.86667 0 0.74 7.86667 0 0.72 7.86667 0 0.7 7.86667 0 0.68 7.86667 0 0.66 7.86667 0 0.64 7.86667 0 0.62 7.86667 0 0.6 7.86667 0 0.58 7.86667 0 0.56 7.86667 0 0.54 7.86667 0 0.52 7.86667 0 0.5 7.86667 0 0.48 7.86667 0 0.46 7.86667 0 0.44 7.86667 0 0.42 7.86667 0 0.4 7.86667 0 0.38 7.86667 0 0.36 7.86667 0 0.34 7.86667 0 0.32 7.86667 0 0.3 7.86667 0 0.28 7.86667 0 0.26 7.86667 0 0.24 7.86667 0 0.22 7.86667 0 0.2 7.86667 0 0.18 7.86667 0 0.16 7.86667 0 0.14 7.86667 0 0.12 7.86667 0 0.1 7.86667 0 0.08 7.86667 0 0.06 7.86667 0 0.04 7.86667 0 0.02 7.86667 0 -5.55112e-17 7.86667 0 -0.02 7.86667 0 -0.04 7.86667 0 -0.06 7.86667 0 -0.08 7.86667 0 -0.1 7.86667 0 -0.12 7.86667 0 -0.14 7.86667 0 -0.16 7.86667 0 -0.18 7.86667 0 -0.2 7.86667 0 -0.22 7.86667 0 -0.24 7.86667 0 -0.26 7.86667 0 -0.28 7.86667 0 -0.3 7.86667 0 -0.32 7.86667 0 -0.34 7.86667 0 -0.36 7.86667 0 -0.38 7.86667 0 -0.4 7.86667 0 -0.42 7.86667 0 -0.44 7.86667 0 -0.46 7.86667 0 -0.48 7.86667 0 -0.5 7.86667 0 -0.52 7.86667 0 -0.54 7.86667 0 -0.56 7.86667 0 -0.58 7.86667 0 -0.6 7.86667 0 -0.62 7.86667 0 -0.64 7.86667 0 -0.66 7.86667 0 -0.68 7.86667 0 -0.7 7.86667 0 -0.72 7.86667 0 -0.74 7.86667 0 -0.76 7.86667 0 -0.78 7.86667 0 -0.8 7.86667 0 -0.82 7.86667 0 -0.84 7.86667 0 -0.86 7.86667 0 -0.88 7.86667 0 -0.9 7.86667 0 -0.92 7.86667 0 -0.94 7.86667 0 -0.96 7.86667 0 -0.98 7.86667 0 0.98 7.93333 0 0.96 7.93333 0 0.94 7.93333 0 0.92 7.93333 0 0.9 7.93333 0 0.88 7.93333 0 0.86 7.93333 0 0.84 7.93333 0 0.82 7.93333 0 0.8 7.93333 0 0.78 7.93333 0 0.76 7.93333 0 0.74 7.93333 0 0.72 7.93333 0 0.7 7.93333 0 0.68 7.93333 0 0.66 7.93333 0 0.64 7.93333 0 0.62 7.93333 0 0.6 7.93333 0 0.58 7.93333 0 0.56 7.93333 0 0.54 7.93333 0 0.52 7.93333 0 0.5 7.93333 0 0.48 7.93333 0 0.46 7.93333 0 0.44 7.93333 0 0.42 7.93333 0 0.4 7.93333 0 0.38 7.93333 0 0.36 7.93333 0 0.34 7.93333 0 0.32 7.93333 0 0.3 7.93333 0 0.28 7.93333 0 0.26 7.93333 0 0.24 7.93333 0 0.22 7.93333 0 0.2 7.93333 0 0.18 7.93333 0 0.16 7.93333 0 0.14 7.93333 0 0.12 7.93333 0 0.1 7.93333 0 0.08 7.93333 0 0.06 7.93333 0 0.04 7.93333 0 0.02 7.93333 0 -5.55112e-17 7.93333 0 -0.02 7.93333 0 -0.04 7.93333 0 -0.06 7.93333 0 -0.08 7.93333 0 -0.1 7.93333 0 -0.12 7.93333 0 -0.14 7.93333 0 -0.16 7.93333 0 -0.18 7.93333 0 -0.2 7.93333 0 -0.22 7.93333 0 -0.24 7.93333 0 -0.26 7.93333 0 -0.28 7.93333 0 -0.3 7.93333 0 -0.32 7.93333 0 -0.34 7.93333 0 -0.36 7.93333 0 -0.38 7.93333 0 -0.4 7.93333 0 -0.42 7.93333 0 -0.44 7.93333 0 -0.46 7.93333 0 -0.48 7.93333 0 -0.5 7.93333 0 -0.52 7.93333 0 -0.54 7.93333 0 -0.56 7.93333 0 -0.58 7.93333 0 -0.6 7.93333 0 -0.62 7.93333 0 -0.64 7.93333 0 -0.66 7.93333 0 -0.68 7.93333 0 -0.7 7.93333 0 -0.72 7.93333 0 -0.74 7.93333 0 -0.76 7.93333 0 -0.78 7.93333 0 -0.8 7.93333 0 -0.82 7.93333 0 -0.84 7.93333 0 -0.86 7.93333 0 -0.88 7.93333 0 -0.9 7.93333 0 -0.92 7.93333 0 -0.94 7.93333 0 -0.96 7.93333 0 -0.98 7.93333 0 0.98 8 0 0.96 8 0 0.94 8 0 0.92 8 0 0.9 8 0 0.88 8 0 0.86 8 0 0.84 8 0 0.82 8 0 0.8 8 0 0.78 8 0 0.76 8 0 0.74 8 0 0.72 8 0 0.7 8 0 0.68 8 0 0.66 8 0 0.64 8 0 0.62 8 0 0.6 8 0 0.58 8 0 0.56 8 0 0.54 8 0 0.52 8 0 0.5 8 0 0.48 8 0 0.46 8 0 0.44 8 0 0.42 8 0 0.4 8 0 0.38 8 0 0.36 8 0 0.34 8 0 0.32 8 0 0.3 8 0 0.28 8 0 0.26 8 0 0.24 8 0 0.22 8 0 0.2 8 0 0.18 8 0 0.16 8 0 0.14 8 0 0.12 8 0 0.1 8 0 0.08 8 0 0.06 8 0 0.04 8 0 0.02 8 0 -5.55112e-17 8 0 -0.02 8 0 -0.04 8 0 -0.06 8 0 -0.08 8 0 -0.1 8 0 -0.12 8 0 -0.14 8 0 -0.16 8 0 -0.18 8 0 -0.2 8 0 -0.22 8 0 -0.24 8 0 -0.26 8 0 -0.28 8 0 -0.3 8 0 -0.32 8 0 -0.34 8 0 -0.36 8 0 -0.38 8 0 -0.4 8 0 -0.42 8 0 -0.44 8 0 -0.46 8 0 -0.48 8 0 -0.5 8 0 -0.52 8 0 -0.54 8 0 -0.56 8 0 -0.58 8 0 -0.6 8 0 -0.62 8 0 -0.64 8 0 -0.66 8 0 -0.68 8 0 -0.7 8 0 -0.72 8 0 -0.74 8 0 -0.76 8 0 -0.78 8 0 -0.8 8 0 -0.82 8 0 -0.84 8 0 -0.86 8 0 -0.88 8 0 -0.9 8 0 -0.92 8 0 -0.94 8 0 -0.96 8 0 -0.98 8 0 0.98 8.06667 0 0.96 8.06667 0 0.94 8.06667 0 0.92 8.06667 0 0.9 8.06667 0 0.88 8.06667 0 0.86 8.06667 0 0.84 8.06667 0 0.82 8.06667 0 0.8 8.06667 0 0.78 8.06667 0 0.76 8.06667 0 0.74 8.06667 0 0.72 8.06667 0 0.7 8.06667 0 0.68 8.06667 0 0.66 8.06667 0 0.64 8.06667 0 0.62 8.06667 0 0.6 8.06667 0 0.58 8.06667 0 0.56 8.06667 0 0.54 8.06667 0 0.52 8.06667 0 0.5 8.06667 0 0.48 8.06667 0 0.46 8.06667 0 0.44 8.06667 0 0.42 8.06667 0 0.4 8.06667 0 0.38 8.06667 0 0.36 8.06667 0 0.34 8.06667 0 0.32 8.06667 0 0.3 8.06667 0 0.28 8.06667 0 0.26 8.06667 0 0.24 8.06667 0 0.22 8.06667 0 0.2 8.06667 0 0.18 8.06667 0 0.16 8.06667 0 0.14 8.06667 0 0.12 8.06667 0 0.1 8.06667 0 0.08 8.06667 0 0.06 8.06667 0 0.04 8.06667 0 0.02 8.06667 0 -5.55112e-17 8.06667 0 -0.02 8.06667 0 -0.04 8.06667 0 -0.06 8.06667 0 -0.08 8.06667 0 -0.1 8.06667 0 -0.12 8.06667 0 -0.14 8.06667 0 -0.16 8.06667 0 -0.18 8.06667 0 -0.2 8.06667 0 -0.22 8.06667 0 -0.24 8.06667 0 -0.26 8.06667 0 -0.28 8.06667 0 -0.3 8.06667 0 -0.32 8.06667 0 -0.34 8.06667 0 -0.36 8.06667 0 -0.38 8.06667 0 -0.4 8.06667 0 -0.42 8.06667 0 -0.44 8.06667 0 -0.46 8.06667 0 -0.48 8.06667 0 -0.5 8.06667 0 -0.52 8.06667 0 -0.54 8.06667 0 -0.56 8.06667 0 -0.58 8.06667 0 -0.6 8.06667 0 -0.62 8.06667 0 -0.64 8.06667 0 -0.66 8.06667 0 -0.68 8.06667 0 -0.7 8.06667 0 -0.72 8.06667 0 -0.74 8.06667 0 -0.76 8.06667 0 -0.78 8.06667 0 -0.8 8.06667 0 -0.82 8.06667 0 -0.84 8.06667 0 -0.86 8.06667 0 -0.88 8.06667 0 -0.9 8.06667 0 -0.92 8.06667 0 -0.94 8.06667 0 -0.96 8.06667 0 -0.98 8.06667 0 0.98 8.13333 0 0.96 8.13333 0 0.94 8.13333 0 0.92 8.13333 0 0.9 8.13333 0 0.88 8.13333 0 0.86 8.13333 0 0.84 8.13333 0 0.82 8.13333 0 0.8 8.13333 0 0.78 8.13333 0 0.76 8.13333 0 0.74 8.13333 0 0.72 8.13333 0 0.7 8.13333 0 0.68 8.13333 0 0.66 8.13333 0 0.64 8.13333 0 0.62 8.13333 0 0.6 8.13333 0 0.58 8.13333 0 0.56 8.13333 0 0.54 8.13333 0 0.52 8.13333 0 0.5 8.13333 0 0.48 8.13333 0 0.46 8.13333 0 0.44 8.13333 0 0.42 8.13333 0 0.4 8.13333 0 0.38 8.13333 0 0.36 8.13333 0 0.34 8.13333 0 0.32 8.13333 0 0.3 8.13333 0 0.28 8.13333 0 0.26 8.13333 0 0.24 8.13333 0 0.22 8.13333 0 0.2 8.13333 0 0.18 8.13333 0 0.16 8.13333 0 0.14 8.13333 0 0.12 8.13333 0 0.1 8.13333 0 0.08 8.13333 0 0.06 8.13333 0 0.04 8.13333 0 0.02 8.13333 0 -5.55112e-17 8.13333 0 -0.02 8.13333 0 -0.04 8.13333 0 -0.06 8.13333 0 -0.08 8.13333 0 -0.1 8.13333 0 -0.12 8.13333 0 -0.14 8.13333 0 -0.16 8.13333 0 -0.18 8.13333 0 -0.2 8.13333 0 -0.22 8.13333 0 -0.24 8.13333 0 -0.26 8.13333 0 -0.28 8.13333 0 -0.3 8.13333 0 -0.32 8.13333 0 -0.34 8.13333 0 -0.36 8.13333 0 -0.38 8.13333 0 -0.4 8.13333 0 -0.42 8.13333 0 -0.44 8.13333 0 -0.46 8.13333 0 -0.48 8.13333 0 -0.5 8.13333 0 -0.52 8.13333 0 -0.54 8.13333 0 -0.56 8.13333 0 -0.58 8.13333 0 -0.6 8.13333 0 -0.62 8.13333 0 -0.64 8.13333 0 -0.66 8.13333 0 -0.68 8.13333 0 -0.7 8.13333 0 -0.72 8.13333 0 -0.74 8.13333 0 -0.76 8.13333 0 -0.78 8.13333 0 -0.8 8.13333 0 -0.82 8.13333 0 -0.84 8.13333 0 -0.86 8.13333 0 -0.88 8.13333 0 -0.9 8.13333 0 -0.92 8.13333 0 -0.94 8.13333 0 -0.96 8.13333 0 -0.98 8.13333 0 0.98 8.2 0 0.96 8.2 0 0.94 8.2 0 0.92 8.2 0 0.9 8.2 0 0.88 8.2 0 0.86 8.2 0 0.84 8.2 0 0.82 8.2 0 0.8 8.2 0 0.78 8.2 0 0.76 8.2 0 0.74 8.2 0 0.72 8.2 0 0.7 8.2 0 0.68 8.2 0 0.66 8.2 0 0.64 8.2 0 0.62 8.2 0 0.6 8.2 0 0.58 8.2 0 0.56 8.2 0 0.54 8.2 0 0.52 8.2 0 0.5 8.2 0 0.48 8.2 0 0.46 8.2 0 0.44 8.2 0 0.42 8.2 0 0.4 8.2 0 0.38 8.2 0 0.36 8.2 0 0.34 8.2 0 0.32 8.2 0 0.3 8.2 0 0.28 8.2 0 0.26 8.2 0 0.24 8.2 0 0.22 8.2 0 0.2 8.2 0 0.18 8.2 0 0.16 8.2 0 0.14 8.2 0 0.12 8.2 0 0.1 8.2 0 0.08 8.2 0 0.06 8.2 0 0.04 8.2 0 0.02 8.2 0 -5.55112e-17 8.2 0 -0.02 8.2 0 -0.04 8.2 0 -0.06 8.2 0 -0.08 8.2 0 -0.1 8.2 0 -0.12 8.2 0 -0.14 8.2 0 -0.16 8.2 0 -0.18 8.2 0 -0.2 8.2 0 -0.22 8.2 0 -0.24 8.2 0 -0.26 8.2 0 -0.28 8.2 0 -0.3 8.2 0 -0.32 8.2 0 -0.34 8.2 0 -0.36 8.2 0 -0.38 8.2 0 -0.4 8.2 0 -0.42 8.2 0 -0.44 8.2 0 -0.46 8.2 0 -0.48 8.2 0 -0.5 8.2 0 -0.52 8.2 0 -0.54 8.2 0 -0.56 8.2 0 -0.58 8.2 0 -0.6 8.2 0 -0.62 8.2 0 -0.64 8.2 0 -0.66 8.2 0 -0.68 8.2 0 -0.7 8.2 0 -0.72 8.2 0 -0.74 8.2 0 -0.76 8.2 0 -0.78 8.2 0 -0.8 8.2 0 -0.82 8.2 0 -0.84 8.2 0 -0.86 8.2 0 -0.88 8.2 0 -0.9 8.2 0 -0.92 8.2 0 -0.94 8.2 0 -0.96 8.2 0 -0.98 8.2 0 0.98 8.26667 0 0.96 8.26667 0 0.94 8.26667 0 0.92 8.26667 0 0.9 8.26667 0 0.88 8.26667 0 0.86 8.26667 0 0.84 8.26667 0 0.82 8.26667 0 0.8 8.26667 0 0.78 8.26667 0 0.76 8.26667 0 0.74 8.26667 0 0.72 8.26667 0 0.7 8.26667 0 0.68 8.26667 0 0.66 8.26667 0 0.64 8.26667 0 0.62 8.26667 0 0.6 8.26667 0 0.58 8.26667 0 0.56 8.26667 0 0.54 8.26667 0 0.52 8.26667 0 0.5 8.26667 0 0.48 8.26667 0 0.46 8.26667 0 0.44 8.26667 0 0.42 8.26667 0 0.4 8.26667 0 0.38 8.26667 0 0.36 8.26667 0 0.34 8.26667 0 0.32 8.26667 0 0.3 8.26667 0 0.28 8.26667 0 0.26 8.26667 0 0.24 8.26667 0 0.22 8.26667 0 0.2 8.26667 0 0.18 8.26667 0 0.16 8.26667 0 0.14 8.26667 0 0.12 8.26667 0 0.1 8.26667 0 0.08 8.26667 0 0.06 8.26667 0 0.04 8.26667 0 0.02 8.26667 0 -5.55112e-17 8.26667 0 -0.02 8.26667 0 -0.04 8.26667 0 -0.06 8.26667 0 -0.08 8.26667 0 -0.1 8.26667 0 -0.12 8.26667 0 -0.14 8.26667 0 -0.16 8.26667 0 -0.18 8.26667 0 -0.2 8.26667 0 -0.22 8.26667 0 -0.24 8.26667 0 -0.26 8.26667 0 -0.28 8.26667 0 -0.3 8.26667 0 -0.32 8.26667 0 -0.34 8.26667 0 -0.36 8.26667 0 -0.38 8.26667 0 -0.4 8.26667 0 -0.42 8.26667 0 -0.44 8.26667 0 -0.46 8.26667 0 -0.48 8.26667 0 -0.5 8.26667 0 -0.52 8.26667 0 -0.54 8.26667 0 -0.56 8.26667 0 -0.58 8.26667 0 -0.6 8.26667 0 -0.62 8.26667 0 -0.64 8.26667 0 -0.66 8.26667 0 -0.68 8.26667 0 -0.7 8.26667 0 -0.72 8.26667 0 -0.74 8.26667 0 -0.76 8.26667 0 -0.78 8.26667 0 -0.8 8.26667 0 -0.82 8.26667 0 -0.84 8.26667 0 -0.86 8.26667 0 -0.88 8.26667 0 -0.9 8.26667 0 -0.92 8.26667 0 -0.94 8.26667 0 -0.96 8.26667 0 -0.98 8.26667 0 0.98 8.33333 0 0.96 8.33333 0 0.94 8.33333 0 0.92 8.33333 0 0.9 8.33333 0 0.88 8.33333 0 0.86 8.33333 0 0.84 8.33333 0 0.82 8.33333 0 0.8 8.33333 0 0.78 8.33333 0 0.76 8.33333 0 0.74 8.33333 0 0.72 8.33333 0 0.7 8.33333 0 0.68 8.33333 0 0.66 8.33333 0 0.64 8.33333 0 0.62 8.33333 0 0.6 8.33333 0 0.58 8.33333 0 0.56 8.33333 0 0.54 8.33333 0 0.52 8.33333 0 0.5 8.33333 0 0.48 8.33333 0 0.46 8.33333 0 0.44 8.33333 0 0.42 8.33333 0 0.4 8.33333 0 0.38 8.33333 0 0.36 8.33333 0 0.34 8.33333 0 0.32 8.33333 0 0.3 8.33333 0 0.28 8.33333 0 0.26 8.33333 0 0.24 8.33333 0 0.22 8.33333 0 0.2 8.33333 0 0.18 8.33333 0 0.16 8.33333 0 0.14 8.33333 0 0.12 8.33333 0 0.1 8.33333 0 0.08 8.33333 0 0.06 8.33333 0 0.04 8.33333 0 0.02 8.33333 0 -5.55112e-17 8.33333 0 -0.02 8.33333 0 -0.04 8.33333 0 -0.06 8.33333 0 -0.08 8.33333 0 -0.1 8.33333 0 -0.12 8.33333 0 -0.14 8.33333 0 -0.16 8.33333 0 -0.18 8.33333 0 -0.2 8.33333 0 -0.22 8.33333 0 -0.24 8.33333 0 -0.26 8.33333 0 -0.28 8.33333 0 -0.3 8.33333 0 -0.32 8.33333 0 -0.34 8.33333 0 -0.36 8.33333 0 -0.38 8.33333 0 -0.4 8.33333 0 -0.42 8.33333 0 -0.44 8.33333 0 -0.46 8.33333 0 -0.48 8.33333 0 -0.5 8.33333 0 -0.52 8.33333 0 -0.54 8.33333 0 -0.56 8.33333 0 -0.58 8.33333 0 -0.6 8.33333 0 -0.62 8.33333 0 -0.64 8.33333 0 -0.66 8.33333 0 -0.68 8.33333 0 -0.7 8.33333 0 -0.72 8.33333 0 -0.74 8.33333 0 -0.76 8.33333 0 -0.78 8.33333 0 -0.8 8.33333 0 -0.82 8.33333 0 -0.84 8.33333 0 -0.86 8.33333 0 -0.88 8.33333 0 -0.9 8.33333 0 -0.92 8.33333 0 -0.94 8.33333 0 -0.96 8.33333 0 -0.98 8.33333 0 0.98 8.4 0 0.96 8.4 0 0.94 8.4 0 0.92 8.4 0 0.9 8.4 0 0.88 8.4 0 0.86 8.4 0 0.84 8.4 0 0.82 8.4 0 0.8 8.4 0 0.78 8.4 0 0.76 8.4 0 0.74 8.4 0 0.72 8.4 0 0.7 8.4 0 0.68 8.4 0 0.66 8.4 0 0.64 8.4 0 0.62 8.4 0 0.6 8.4 0 0.58 8.4 0 0.56 8.4 0 0.54 8.4 0 0.52 8.4 0 0.5 8.4 0 0.48 8.4 0 0.46 8.4 0 0.44 8.4 0 0.42 8.4 0 0.4 8.4 0 0.38 8.4 0 0.36 8.4 0 0.34 8.4 0 0.32 8.4 0 0.3 8.4 0 0.28 8.4 0 0.26 8.4 0 0.24 8.4 0 0.22 8.4 0 0.2 8.4 0 0.18 8.4 0 0.16 8.4 0 0.14 8.4 0 0.12 8.4 0 0.1 8.4 0 0.08 8.4 0 0.06 8.4 0 0.04 8.4 0 0.02 8.4 0 0 8.4 0 -0.02 8.4 0 -0.04 8.4 0 -0.06 8.4 0 -0.08 8.4 0 -0.1 8.4 0 -0.12 8.4 0 -0.14 8.4 0 -0.16 8.4 0 -0.18 8.4 0 -0.2 8.4 0 -0.22 8.4 0 -0.24 8.4 0 -0.26 8.4 0 -0.28 8.4 0 -0.3 8.4 0 -0.32 8.4 0 -0.34 8.4 0 -0.36 8.4 0 -0.38 8.4 0 -0.4 8.4 0 -0.42 8.4 0 -0.44 8.4 0 -0.46 8.4 0 -0.48 8.4 0 -0.5 8.4 0 -0.52 8.4 0 -0.54 8.4 0 -0.56 8.4 0 -0.58 8.4 0 -0.6 8.4 0 -0.62 8.4 0 -0.64 8.4 0 -0.66 8.4 0 -0.68 8.4 0 -0.7 8.4 0 -0.72 8.4 0 -0.74 8.4 0 -0.76 8.4 0 -0.78 8.4 0 -0.8 8.4 0 -0.82 8.4 0 -0.84 8.4 0 -0.86 8.4 0 -0.88 8.4 0 -0.9 8.4 0 -0.92 8.4 0 -0.94 8.4 0 -0.96 8.4 0 -0.98 8.4 0 0.98 8.46667 0 0.96 8.46667 0 0.94 8.46667 0 0.92 8.46667 0 0.9 8.46667 0 0.88 8.46667 0 0.86 8.46667 0 0.84 8.46667 0 0.82 8.46667 0 0.8 8.46667 0 0.78 8.46667 0 0.76 8.46667 0 0.74 8.46667 0 0.72 8.46667 0 0.7 8.46667 0 0.68 8.46667 0 0.66 8.46667 0 0.64 8.46667 0 0.62 8.46667 0 0.6 8.46667 0 0.58 8.46667 0 0.56 8.46667 0 0.54 8.46667 0 0.52 8.46667 0 0.5 8.46667 0 0.48 8.46667 0 0.46 8.46667 0 0.44 8.46667 0 0.42 8.46667 0 0.4 8.46667 0 0.38 8.46667 0 0.36 8.46667 0 0.34 8.46667 0 0.32 8.46667 0 0.3 8.46667 0 0.28 8.46667 0 0.26 8.46667 0 0.24 8.46667 0 0.22 8.46667 0 0.2 8.46667 0 0.18 8.46667 0 0.16 8.46667 0 0.14 8.46667 0 0.12 8.46667 0 0.1 8.46667 0 0.08 8.46667 0 0.06 8.46667 0 0.04 8.46667 0 0.02 8.46667 0 -5.55112e-17 8.46667 0 -0.02 8.46667 0 -0.04 8.46667 0 -0.06 8.46667 0 -0.08 8.46667 0 -0.1 8.46667 0 -0.12 8.46667 0 -0.14 8.46667 0 -0.16 8.46667 0 -0.18 8.46667 0 -0.2 8.46667 0 -0.22 8.46667 0 -0.24 8.46667 0 -0.26 8.46667 0 -0.28 8.46667 0 -0.3 8.46667 0 -0.32 8.46667 0 -0.34 8.46667 0 -0.36 8.46667 0 -0.38 8.46667 0 -0.4 8.46667 0 -0.42 8.46667 0 -0.44 8.46667 0 -0.46 8.46667 0 -0.48 8.46667 0 -0.5 8.46667 0 -0.52 8.46667 0 -0.54 8.46667 0 -0.56 8.46667 0 -0.58 8.46667 0 -0.6 8.46667 0 -0.62 8.46667 0 -0.64 8.46667 0 -0.66 8.46667 0 -0.68 8.46667 0 -0.7 8.46667 0 -0.72 8.46667 0 -0.74 8.46667 0 -0.76 8.46667 0 -0.78 8.46667 0 -0.8 8.46667 0 -0.82 8.46667 0 -0.84 8.46667 0 -0.86 8.46667 0 -0.88 8.46667 0 -0.9 8.46667 0 -0.92 8.46667 0 -0.94 8.46667 0 -0.96 8.46667 0 -0.98 8.46667 0 0.98 8.53333 0 0.96 8.53333 0 0.94 8.53333 0 0.92 8.53333 0 0.9 8.53333 0 0.88 8.53333 0 0.86 8.53333 0 0.84 8.53333 0 0.82 8.53333 0 0.8 8.53333 0 0.78 8.53333 0 0.76 8.53333 0 0.74 8.53333 0 0.72 8.53333 0 0.7 8.53333 0 0.68 8.53333 0 0.66 8.53333 0 0.64 8.53333 0 0.62 8.53333 0 0.6 8.53333 0 0.58 8.53333 0 0.56 8.53333 0 0.54 8.53333 0 0.52 8.53333 0 0.5 8.53333 0 0.48 8.53333 0 0.46 8.53333 0 0.44 8.53333 0 0.42 8.53333 0 0.4 8.53333 0 0.38 8.53333 0 0.36 8.53333 0 0.34 8.53333 0 0.32 8.53333 0 0.3 8.53333 0 0.28 8.53333 0 0.26 8.53333 0 0.24 8.53333 0 0.22 8.53333 0 0.2 8.53333 0 0.18 8.53333 0 0.16 8.53333 0 0.14 8.53333 0 0.12 8.53333 0 0.1 8.53333 0 0.08 8.53333 0 0.06 8.53333 0 0.04 8.53333 0 0.02 8.53333 0 0 8.53333 0 -0.02 8.53333 0 -0.04 8.53333 0 -0.06 8.53333 0 -0.08 8.53333 0 -0.1 8.53333 0 -0.12 8.53333 0 -0.14 8.53333 0 -0.16 8.53333 0 -0.18 8.53333 0 -0.2 8.53333 0 -0.22 8.53333 0 -0.24 8.53333 0 -0.26 8.53333 0 -0.28 8.53333 0 -0.3 8.53333 0 -0.32 8.53333 0 -0.34 8.53333 0 -0.36 8.53333 0 -0.38 8.53333 0 -0.4 8.53333 0 -0.42 8.53333 0 -0.44 8.53333 0 -0.46 8.53333 0 -0.48 8.53333 0 -0.5 8.53333 0 -0.52 8.53333 0 -0.54 8.53333 0 -0.56 8.53333 0 -0.58 8.53333 0 -0.6 8.53333 0 -0.62 8.53333 0 -0.64 8.53333 0 -0.66 8.53333 0 -0.68 8.53333 0 -0.7 8.53333 0 -0.72 8.53333 0 -0.74 8.53333 0 -0.76 8.53333 0 -0.78 8.53333 0 -0.8 8.53333 0 -0.82 8.53333 0 -0.84 8.53333 0 -0.86 8.53333 0 -0.88 8.53333 0 -0.9 8.53333 0 -0.92 8.53333 0 -0.94 8.53333 0 -0.96 8.53333 0 -0.98 8.53333 0 0.98 8.6 0 0.96 8.6 0 0.94 8.6 0 0.92 8.6 0 0.9 8.6 0 0.88 8.6 0 0.86 8.6 0 0.84 8.6 0 0.82 8.6 0 0.8 8.6 0 0.78 8.6 0 0.76 8.6 0 0.74 8.6 0 0.72 8.6 0 0.7 8.6 0 0.68 8.6 0 0.66 8.6 0 0.64 8.6 0 0.62 8.6 0 0.6 8.6 0 0.58 8.6 0 0.56 8.6 0 0.54 8.6 0 0.52 8.6 0 0.5 8.6 0 0.48 8.6 0 0.46 8.6 0 0.44 8.6 0 0.42 8.6 0 0.4 8.6 0 0.38 8.6 0 0.36 8.6 0 0.34 8.6 0 0.32 8.6 0 0.3 8.6 0 0.28 8.6 0 0.26 8.6 0 0.24 8.6 0 0.22 8.6 0 0.2 8.6 0 0.18 8.6 0 0.16 8.6 0 0.14 8.6 0 0.12 8.6 0 0.1 8.6 0 0.08 8.6 0 0.06 8.6 0 0.04 8.6 0 0.02 8.6 0 -5.55112e-17 8.6 0 -0.02 8.6 0 -0.04 8.6 0 -0.06 8.6 0 -0.08 8.6 0 -0.1 8.6 0 -0.12 8.6 0 -0.14 8.6 0 -0.16 8.6 0 -0.18 8.6 0 -0.2 8.6 0 -0.22 8.6 0 -0.24 8.6 0 -0.26 8.6 0 -0.28 8.6 0 -0.3 8.6 0 -0.32 8.6 0 -0.34 8.6 0 -0.36 8.6 0 -0.38 8.6 0 -0.4 8.6 0 -0.42 8.6 0 -0.44 8.6 0 -0.46 8.6 0 -0.48 8.6 0 -0.5 8.6 0 -0.52 8.6 0 -0.54 8.6 0 -0.56 8.6 0 -0.58 8.6 0 -0.6 8.6 0 -0.62 8.6 0 -0.64 8.6 0 -0.66 8.6 0 -0.68 8.6 0 -0.7 8.6 0 -0.72 8.6 0 -0.74 8.6 0 -0.76 8.6 0 -0.78 8.6 0 -0.8 8.6 0 -0.82 8.6 0 -0.84 8.6 0 -0.86 8.6 0 -0.88 8.6 0 -0.9 8.6 0 -0.92 8.6 0 -0.94 8.6 0 -0.96 8.6 0 -0.98 8.6 0 0.98 8.66667 0 0.96 8.66667 0 0.94 8.66667 0 0.92 8.66667 0 0.9 8.66667 0 0.88 8.66667 0 0.86 8.66667 0 0.84 8.66667 0 0.82 8.66667 0 0.8 8.66667 0 0.78 8.66667 0 0.76 8.66667 0 0.74 8.66667 0 0.72 8.66667 0 0.7 8.66667 0 0.68 8.66667 0 0.66 8.66667 0 0.64 8.66667 0 0.62 8.66667 0 0.6 8.66667 0 0.58 8.66667 0 0.56 8.66667 0 0.54 8.66667 0 0.52 8.66667 0 0.5 8.66667 0 0.48 8.66667 0 0.46 8.66667 0 0.44 8.66667 0 0.42 8.66667 0 0.4 8.66667 0 0.38 8.66667 0 0.36 8.66667 0 0.34 8.66667 0 0.32 8.66667 0 0.3 8.66667 0 0.28 8.66667 0 0.26 8.66667 0 0.24 8.66667 0 0.22 8.66667 0 0.2 8.66667 0 0.18 8.66667 0 0.16 8.66667 0 0.14 8.66667 0 0.12 8.66667 0 0.1 8.66667 0 0.08 8.66667 0 0.06 8.66667 0 0.04 8.66667 0 0.02 8.66667 0 0 8.66667 0 -0.02 8.66667 0 -0.04 8.66667 0 -0.06 8.66667 0 -0.08 8.66667 0 -0.1 8.66667 0 -0.12 8.66667 0 -0.14 8.66667 0 -0.16 8.66667 0 -0.18 8.66667 0 -0.2 8.66667 0 -0.22 8.66667 0 -0.24 8.66667 0 -0.26 8.66667 0 -0.28 8.66667 0 -0.3 8.66667 0 -0.32 8.66667 0 -0.34 8.66667 0 -0.36 8.66667 0 -0.38 8.66667 0 -0.4 8.66667 0 -0.42 8.66667 0 -0.44 8.66667 0 -0.46 8.66667 0 -0.48 8.66667 0 -0.5 8.66667 0 -0.52 8.66667 0 -0.54 8.66667 0 -0.56 8.66667 0 -0.58 8.66667 0 -0.6 8.66667 0 -0.62 8.66667 0 -0.64 8.66667 0 -0.66 8.66667 0 -0.68 8.66667 0 -0.7 8.66667 0 -0.72 8.66667 0 -0.74 8.66667 0 -0.76 8.66667 0 -0.78 8.66667 0 -0.8 8.66667 0 -0.82 8.66667 0 -0.84 8.66667 0 -0.86 8.66667 0 -0.88 8.66667 0 -0.9 8.66667 0 -0.92 8.66667 0 -0.94 8.66667 0 -0.96 8.66667 0 -0.98 8.66667 0 0.98 8.73333 0 0.96 8.73333 0 0.94 8.73333 0 0.92 8.73333 0 0.9 8.73333 0 0.88 8.73333 0 0.86 8.73333 0 0.84 8.73333 0 0.82 8.73333 0 0.8 8.73333 0 0.78 8.73333 0 0.76 8.73333 0 0.74 8.73333 0 0.72 8.73333 0 0.7 8.73333 0 0.68 8.73333 0 0.66 8.73333 0 0.64 8.73333 0 0.62 8.73333 0 0.6 8.73333 0 0.58 8.73333 0 0.56 8.73333 0 0.54 8.73333 0 0.52 8.73333 0 0.5 8.73333 0 0.48 8.73333 0 0.46 8.73333 0 0.44 8.73333 0 0.42 8.73333 0 0.4 8.73333 0 0.38 8.73333 0 0.36 8.73333 0 0.34 8.73333 0 0.32 8.73333 0 0.3 8.73333 0 0.28 8.73333 0 0.26 8.73333 0 0.24 8.73333 0 0.22 8.73333 0 0.2 8.73333 0 0.18 8.73333 0 0.16 8.73333 0 0.14 8.73333 0 0.12 8.73333 0 0.1 8.73333 0 0.08 8.73333 0 0.06 8.73333 0 0.04 8.73333 0 0.02 8.73333 0 -5.55112e-17 8.73333 0 -0.02 8.73333 0 -0.04 8.73333 0 -0.06 8.73333 0 -0.08 8.73333 0 -0.1 8.73333 0 -0.12 8.73333 0 -0.14 8.73333 0 -0.16 8.73333 0 -0.18 8.73333 0 -0.2 8.73333 0 -0.22 8.73333 0 -0.24 8.73333 0 -0.26 8.73333 0 -0.28 8.73333 0 -0.3 8.73333 0 -0.32 8.73333 0 -0.34 8.73333 0 -0.36 8.73333 0 -0.38 8.73333 0 -0.4 8.73333 0 -0.42 8.73333 0 -0.44 8.73333 0 -0.46 8.73333 0 -0.48 8.73333 0 -0.5 8.73333 0 -0.52 8.73333 0 -0.54 8.73333 0 -0.56 8.73333 0 -0.58 8.73333 0 -0.6 8.73333 0 -0.62 8.73333 0 -0.64 8.73333 0 -0.66 8.73333 0 -0.68 8.73333 0 -0.7 8.73333 0 -0.72 8.73333 0 -0.74 8.73333 0 -0.76 8.73333 0 -0.78 8.73333 0 -0.8 8.73333 0 -0.82 8.73333 0 -0.84 8.73333 0 -0.86 8.73333 0 -0.88 8.73333 0 -0.9 8.73333 0 -0.92 8.73333 0 -0.94 8.73333 0 -0.96 8.73333 0 -0.98 8.73333 0 0.98 8.8 0 0.96 8.8 0 0.94 8.8 0 0.92 8.8 0 0.9 8.8 0 0.88 8.8 0 0.86 8.8 0 0.84 8.8 0 0.82 8.8 0 0.8 8.8 0 0.78 8.8 0 0.76 8.8 0 0.74 8.8 0 0.72 8.8 0 0.7 8.8 0 0.68 8.8 0 0.66 8.8 0 0.64 8.8 0 0.62 8.8 0 0.6 8.8 0 0.58 8.8 0 0.56 8.8 0 0.54 8.8 0 0.52 8.8 0 0.5 8.8 0 0.48 8.8 0 0.46 8.8 0 0.44 8.8 0 0.42 8.8 0 0.4 8.8 0 0.38 8.8 0 0.36 8.8 0 0.34 8.8 0 0.32 8.8 0 0.3 8.8 0 0.28 8.8 0 0.26 8.8 0 0.24 8.8 0 0.22 8.8 0 0.2 8.8 0 0.18 8.8 0 0.16 8.8 0 0.14 8.8 0 0.12 8.8 0 0.1 8.8 0 0.08 8.8 0 0.06 8.8 0 0.04 8.8 0 0.02 8.8 0 0 8.8 0 -0.02 8.8 0 -0.04 8.8 0 -0.06 8.8 0 -0.08 8.8 0 -0.1 8.8 0 -0.12 8.8 0 -0.14 8.8 0 -0.16 8.8 0 -0.18 8.8 0 -0.2 8.8 0 -0.22 8.8 0 -0.24 8.8 0 -0.26 8.8 0 -0.28 8.8 0 -0.3 8.8 0 -0.32 8.8 0 -0.34 8.8 0 -0.36 8.8 0 -0.38 8.8 0 -0.4 8.8 0 -0.42 8.8 0 -0.44 8.8 0 -0.46 8.8 0 -0.48 8.8 0 -0.5 8.8 0 -0.52 8.8 0 -0.54 8.8 0 -0.56 8.8 0 -0.58 8.8 0 -0.6 8.8 0 -0.62 8.8 0 -0.64 8.8 0 -0.66 8.8 0 -0.68 8.8 0 -0.7 8.8 0 -0.72 8.8 0 -0.74 8.8 0 -0.76 8.8 0 -0.78 8.8 0 -0.8 8.8 0 -0.82 8.8 0 -0.84 8.8 0 -0.86 8.8 0 -0.88 8.8 0 -0.9 8.8 0 -0.92 8.8 0 -0.94 8.8 0 -0.96 8.8 0 -0.98 8.8 0 0.98 8.86667 0 0.96 8.86667 0 0.94 8.86667 0 0.92 8.86667 0 0.9 8.86667 0 0.88 8.86667 0 0.86 8.86667 0 0.84 8.86667 0 0.82 8.86667 0 0.8 8.86667 0 0.78 8.86667 0 0.76 8.86667 0 0.74 8.86667 0 0.72 8.86667 0 0.7 8.86667 0 0.68 8.86667 0 0.66 8.86667 0 0.64 8.86667 0 0.62 8.86667 0 0.6 8.86667 0 0.58 8.86667 0 0.56 8.86667 0 0.54 8.86667 0 0.52 8.86667 0 0.5 8.86667 0 0.48 8.86667 0 0.46 8.86667 0 0.44 8.86667 0 0.42 8.86667 0 0.4 8.86667 0 0.38 8.86667 0 0.36 8.86667 0 0.34 8.86667 0 0.32 8.86667 0 0.3 8.86667 0 0.28 8.86667 0 0.26 8.86667 0 0.24 8.86667 0 0.22 8.86667 0 0.2 8.86667 0 0.18 8.86667 0 0.16 8.86667 0 0.14 8.86667 0 0.12 8.86667 0 0.1 8.86667 0 0.08 8.86667 0 0.06 8.86667 0 0.04 8.86667 0 0.02 8.86667 0 -5.55112e-17 8.86667 0 -0.02 8.86667 0 -0.04 8.86667 0 -0.06 8.86667 0 -0.08 8.86667 0 -0.1 8.86667 0 -0.12 8.86667 0 -0.14 8.86667 0 -0.16 8.86667 0 -0.18 8.86667 0 -0.2 8.86667 0 -0.22 8.86667 0 -0.24 8.86667 0 -0.26 8.86667 0 -0.28 8.86667 0 -0.3 8.86667 0 -0.32 8.86667 0 -0.34 8.86667 0 -0.36 8.86667 0 -0.38 8.86667 0 -0.4 8.86667 0 -0.42 8.86667 0 -0.44 8.86667 0 -0.46 8.86667 0 -0.48 8.86667 0 -0.5 8.86667 0 -0.52 8.86667 0 -0.54 8.86667 0 -0.56 8.86667 0 -0.58 8.86667 0 -0.6 8.86667 0 -0.62 8.86667 0 -0.64 8.86667 0 -0.66 8.86667 0 -0.68 8.86667 0 -0.7 8.86667 0 -0.72 8.86667 0 -0.74 8.86667 0 -0.76 8.86667 0 -0.78 8.86667 0 -0.8 8.86667 0 -0.82 8.86667 0 -0.84 8.86667 0 -0.86 8.86667 0 -0.88 8.86667 0 -0.9 8.86667 0 -0.92 8.86667 0 -0.94 8.86667 0 -0.96 8.86667 0 -0.98 8.86667 0 0.98 8.93333 0 0.96 8.93333 0 0.94 8.93333 0 0.92 8.93333 0 0.9 8.93333 0 0.88 8.93333 0 0.86 8.93333 0 0.84 8.93333 0 0.82 8.93333 0 0.8 8.93333 0 0.78 8.93333 0 0.76 8.93333 0 0.74 8.93333 0 0.72 8.93333 0 0.7 8.93333 0 0.68 8.93333 0 0.66 8.93333 0 0.64 8.93333 0 0.62 8.93333 0 0.6 8.93333 0 0.58 8.93333 0 0.56 8.93333 0 0.54 8.93333 0 0.52 8.93333 0 0.5 8.93333 0 0.48 8.93333 0 0.46 8.93333 0 0.44 8.93333 0 0.42 8.93333 0 0.4 8.93333 0 0.38 8.93333 0 0.36 8.93333 0 0.34 8.93333 0 0.32 8.93333 0 0.3 8.93333 0 0.28 8.93333 0 0.26 8.93333 0 0.24 8.93333 0 0.22 8.93333 0 0.2 8.93333 0 0.18 8.93333 0 0.16 8.93333 0 0.14 8.93333 0 0.12 8.93333 0 0.1 8.93333 0 0.08 8.93333 0 0.06 8.93333 0 0.04 8.93333 0 0.02 8.93333 0 0 8.93333 0 -0.02 8.93333 0 -0.04 8.93333 0 -0.06 8.93333 0 -0.08 8.93333 0 -0.1 8.93333 0 -0.12 8.93333 0 -0.14 8.93333 0 -0.16 8.93333 0 -0.18 8.93333 0 -0.2 8.93333 0 -0.22 8.93333 0 -0.24 8.93333 0 -0.26 8.93333 0 -0.28 8.93333 0 -0.3 8.93333 0 -0.32 8.93333 0 -0.34 8.93333 0 -0.36 8.93333 0 -0.38 8.93333 0 -0.4 8.93333 0 -0.42 8.93333 0 -0.44 8.93333 0 -0.46 8.93333 0 -0.48 8.93333 0 -0.5 8.93333 0 -0.52 8.93333 0 -0.54 8.93333 0 -0.56 8.93333 0 -0.58 8.93333 0 -0.6 8.93333 0 -0.62 8.93333 0 -0.64 8.93333 0 -0.66 8.93333 0 -0.68 8.93333 0 -0.7 8.93333 0 -0.72 8.93333 0 -0.74 8.93333 0 -0.76 8.93333 0 -0.78 8.93333 0 -0.8 8.93333 0 -0.82 8.93333 0 -0.84 8.93333 0 -0.86 8.93333 0 -0.88 8.93333 0 -0.9 8.93333 0 -0.92 8.93333 0 -0.94 8.93333 0 -0.96 8.93333 0 -0.98 8.93333 0 0.98 9 0 0.96 9 0 0.94 9 0 0.92 9 0 0.9 9 0 0.88 9 0 0.86 9 0 0.84 9 0 0.82 9 0 0.8 9 0 0.78 9 0 0.76 9 0 0.74 9 0 0.72 9 0 0.7 9 0 0.68 9 0 0.66 9 0 0.64 9 0 0.62 9 0 0.6 9 0 0.58 9 0 0.56 9 0 0.54 9 0 0.52 9 0 0.5 9 0 0.48 9 0 0.46 9 0 0.44 9 0 0.42 9 0 0.4 9 0 0.38 9 0 0.36 9 0 0.34 9 0 0.32 9 0 0.3 9 0 0.28 9 0 0.26 9 0 0.24 9 0 0.22 9 0 0.2 9 0 0.18 9 0 0.16 9 0 0.14 9 0 0.12 9 0 0.1 9 0 0.08 9 0 0.06 9 0 0.04 9 0 0.02 9 0 0 9 0 -0.02 9 0 -0.04 9 0 -0.06 9 0 -0.08 9 0 -0.1 9 0 -0.12 9 0 -0.14 9 0 -0.16 9 0 -0.18 9 0 -0.2 9 0 -0.22 9 0 -0.24 9 0 -0.26 9 0 -0.28 9 0 -0.3 9 0 -0.32 9 0 -0.34 9 0 -0.36 9 0 -0.38 9 0 -0.4 9 0 -0.42 9 0 -0.44 9 0 -0.46 9 0 -0.48 9 0 -0.5 9 0 -0.52 9 0 -0.54 9 0 -0.56 9 0 -0.58 9 0 -0.6 9 0 -0.62 9 0 -0.64 9 0 -0.66 9 0 -0.68 9 0 -0.7 9 0 -0.72 9 0 -0.74 9 0 -0.76 9 0 -0.78 9 0 -0.8 9 0 -0.82 9 0 -0.84 9 0 -0.86 9 0 -0.88 9 0 -0.9 9 0 -0.92 9 0 -0.94 9 0 -0.96 9 0 -0.98 9 0 0.98 9.06667 0 0.96 9.06667 0 0.94 9.06667 0 0.92 9.06667 0 0.9 9.06667 0 0.88 9.06667 0 0.86 9.06667 0 0.84 9.06667 0 0.82 9.06667 0 0.8 9.06667 0 0.78 9.06667 0 0.76 9.06667 0 0.74 9.06667 0 0.72 9.06667 0 0.7 9.06667 0 0.68 9.06667 0 0.66 9.06667 0 0.64 9.06667 0 0.62 9.06667 0 0.6 9.06667 0 0.58 9.06667 0 0.56 9.06667 0 0.54 9.06667 0 0.52 9.06667 0 0.5 9.06667 0 0.48 9.06667 0 0.46 9.06667 0 0.44 9.06667 0 0.42 9.06667 0 0.4 9.06667 0 0.38 9.06667 0 0.36 9.06667 0 0.34 9.06667 0 0.32 9.06667 0 0.3 9.06667 0 0.28 9.06667 0 0.26 9.06667 0 0.24 9.06667 0 0.22 9.06667 0 0.2 9.06667 0 0.18 9.06667 0 0.16 9.06667 0 0.14 9.06667 0 0.12 9.06667 0 0.1 9.06667 0 0.08 9.06667 0 0.06 9.06667 0 0.04 9.06667 0 0.02 9.06667 0 -5.55112e-17 9.06667 0 -0.02 9.06667 0 -0.04 9.06667 0 -0.06 9.06667 0 -0.08 9.06667 0 -0.1 9.06667 0 -0.12 9.06667 0 -0.14 9.06667 0 -0.16 9.06667 0 -0.18 9.06667 0 -0.2 9.06667 0 -0.22 9.06667 0 -0.24 9.06667 0 -0.26 9.06667 0 -0.28 9.06667 0 -0.3 9.06667 0 -0.32 9.06667 0 -0.34 9.06667 0 -0.36 9.06667 0 -0.38 9.06667 0 -0.4 9.06667 0 -0.42 9.06667 0 -0.44 9.06667 0 -0.46 9.06667 0 -0.48 9.06667 0 -0.5 9.06667 0 -0.52 9.06667 0 -0.54 9.06667 0 -0.56 9.06667 0 -0.58 9.06667 0 -0.6 9.06667 0 -0.62 9.06667 0 -0.64 9.06667 0 -0.66 9.06667 0 -0.68 9.06667 0 -0.7 9.06667 0 -0.72 9.06667 0 -0.74 9.06667 0 -0.76 9.06667 0 -0.78 9.06667 0 -0.8 9.06667 0 -0.82 9.06667 0 -0.84 9.06667 0 -0.86 9.06667 0 -0.88 9.06667 0 -0.9 9.06667 0 -0.92 9.06667 0 -0.94 9.06667 0 -0.96 9.06667 0 -0.98 9.06667 0 0.98 9.13333 0 0.96 9.13333 0 0.94 9.13333 0 0.92 9.13333 0 0.9 9.13333 0 0.88 9.13333 0 0.86 9.13333 0 0.84 9.13333 0 0.82 9.13333 0 0.8 9.13333 0 0.78 9.13333 0 0.76 9.13333 0 0.74 9.13333 0 0.72 9.13333 0 0.7 9.13333 0 0.68 9.13333 0 0.66 9.13333 0 0.64 9.13333 0 0.62 9.13333 0 0.6 9.13333 0 0.58 9.13333 0 0.56 9.13333 0 0.54 9.13333 0 0.52 9.13333 0 0.5 9.13333 0 0.48 9.13333 0 0.46 9.13333 0 0.44 9.13333 0 0.42 9.13333 0 0.4 9.13333 0 0.38 9.13333 0 0.36 9.13333 0 0.34 9.13333 0 0.32 9.13333 0 0.3 9.13333 0 0.28 9.13333 0 0.26 9.13333 0 0.24 9.13333 0 0.22 9.13333 0 0.2 9.13333 0 0.18 9.13333 0 0.16 9.13333 0 0.14 9.13333 0 0.12 9.13333 0 0.1 9.13333 0 0.08 9.13333 0 0.06 9.13333 0 0.04 9.13333 0 0.02 9.13333 0 0 9.13333 0 -0.02 9.13333 0 -0.04 9.13333 0 -0.06 9.13333 0 -0.08 9.13333 0 -0.1 9.13333 0 -0.12 9.13333 0 -0.14 9.13333 0 -0.16 9.13333 0 -0.18 9.13333 0 -0.2 9.13333 0 -0.22 9.13333 0 -0.24 9.13333 0 -0.26 9.13333 0 -0.28 9.13333 0 -0.3 9.13333 0 -0.32 9.13333 0 -0.34 9.13333 0 -0.36 9.13333 0 -0.38 9.13333 0 -0.4 9.13333 0 -0.42 9.13333 0 -0.44 9.13333 0 -0.46 9.13333 0 -0.48 9.13333 0 -0.5 9.13333 0 -0.52 9.13333 0 -0.54 9.13333 0 -0.56 9.13333 0 -0.58 9.13333 0 -0.6 9.13333 0 -0.62 9.13333 0 -0.64 9.13333 0 -0.66 9.13333 0 -0.68 9.13333 0 -0.7 9.13333 0 -0.72 9.13333 0 -0.74 9.13333 0 -0.76 9.13333 0 -0.78 9.13333 0 -0.8 9.13333 0 -0.82 9.13333 0 -0.84 9.13333 0 -0.86 9.13333 0 -0.88 9.13333 0 -0.9 9.13333 0 -0.92 9.13333 0 -0.94 9.13333 0 -0.96 9.13333 0 -0.98 9.13333 0 0.98 9.2 0 0.96 9.2 0 0.94 9.2 0 0.92 9.2 0 0.9 9.2 0 0.88 9.2 0 0.86 9.2 0 0.84 9.2 0 0.82 9.2 0 0.8 9.2 0 0.78 9.2 0 0.76 9.2 0 0.74 9.2 0 0.72 9.2 0 0.7 9.2 0 0.68 9.2 0 0.66 9.2 0 0.64 9.2 0 0.62 9.2 0 0.6 9.2 0 0.58 9.2 0 0.56 9.2 0 0.54 9.2 0 0.52 9.2 0 0.5 9.2 0 0.48 9.2 0 0.46 9.2 0 0.44 9.2 0 0.42 9.2 0 0.4 9.2 0 0.38 9.2 0 0.36 9.2 0 0.34 9.2 0 0.32 9.2 0 0.3 9.2 0 0.28 9.2 0 0.26 9.2 0 0.24 9.2 0 0.22 9.2 0 0.2 9.2 0 0.18 9.2 0 0.16 9.2 0 0.14 9.2 0 0.12 9.2 0 0.1 9.2 0 0.08 9.2 0 0.06 9.2 0 0.04 9.2 0 0.02 9.2 0 0 9.2 0 -0.02 9.2 0 -0.04 9.2 0 -0.06 9.2 0 -0.08 9.2 0 -0.1 9.2 0 -0.12 9.2 0 -0.14 9.2 0 -0.16 9.2 0 -0.18 9.2 0 -0.2 9.2 0 -0.22 9.2 0 -0.24 9.2 0 -0.26 9.2 0 -0.28 9.2 0 -0.3 9.2 0 -0.32 9.2 0 -0.34 9.2 0 -0.36 9.2 0 -0.38 9.2 0 -0.4 9.2 0 -0.42 9.2 0 -0.44 9.2 0 -0.46 9.2 0 -0.48 9.2 0 -0.5 9.2 0 -0.52 9.2 0 -0.54 9.2 0 -0.56 9.2 0 -0.58 9.2 0 -0.6 9.2 0 -0.62 9.2 0 -0.64 9.2 0 -0.66 9.2 0 -0.68 9.2 0 -0.7 9.2 0 -0.72 9.2 0 -0.74 9.2 0 -0.76 9.2 0 -0.78 9.2 0 -0.8 9.2 0 -0.82 9.2 0 -0.84 9.2 0 -0.86 9.2 0 -0.88 9.2 0 -0.9 9.2 0 -0.92 9.2 0 -0.94 9.2 0 -0.96 9.2 0 -0.98 9.2 0 0.98 9.26667 0 0.96 9.26667 0 0.94 9.26667 0 0.92 9.26667 0 0.9 9.26667 0 0.88 9.26667 0 0.86 9.26667 0 0.84 9.26667 0 0.82 9.26667 0 0.8 9.26667 0 0.78 9.26667 0 0.76 9.26667 0 0.74 9.26667 0 0.72 9.26667 0 0.7 9.26667 0 0.68 9.26667 0 0.66 9.26667 0 0.64 9.26667 0 0.62 9.26667 0 0.6 9.26667 0 0.58 9.26667 0 0.56 9.26667 0 0.54 9.26667 0 0.52 9.26667 0 0.5 9.26667 0 0.48 9.26667 0 0.46 9.26667 0 0.44 9.26667 0 0.42 9.26667 0 0.4 9.26667 0 0.38 9.26667 0 0.36 9.26667 0 0.34 9.26667 0 0.32 9.26667 0 0.3 9.26667 0 0.28 9.26667 0 0.26 9.26667 0 0.24 9.26667 0 0.22 9.26667 0 0.2 9.26667 0 0.18 9.26667 0 0.16 9.26667 0 0.14 9.26667 0 0.12 9.26667 0 0.1 9.26667 0 0.08 9.26667 0 0.06 9.26667 0 0.04 9.26667 0 0.02 9.26667 0 0 9.26667 0 -0.02 9.26667 0 -0.04 9.26667 0 -0.06 9.26667 0 -0.08 9.26667 0 -0.1 9.26667 0 -0.12 9.26667 0 -0.14 9.26667 0 -0.16 9.26667 0 -0.18 9.26667 0 -0.2 9.26667 0 -0.22 9.26667 0 -0.24 9.26667 0 -0.26 9.26667 0 -0.28 9.26667 0 -0.3 9.26667 0 -0.32 9.26667 0 -0.34 9.26667 0 -0.36 9.26667 0 -0.38 9.26667 0 -0.4 9.26667 0 -0.42 9.26667 0 -0.44 9.26667 0 -0.46 9.26667 0 -0.48 9.26667 0 -0.5 9.26667 0 -0.52 9.26667 0 -0.54 9.26667 0 -0.56 9.26667 0 -0.58 9.26667 0 -0.6 9.26667 0 -0.62 9.26667 0 -0.64 9.26667 0 -0.66 9.26667 0 -0.68 9.26667 0 -0.7 9.26667 0 -0.72 9.26667 0 -0.74 9.26667 0 -0.76 9.26667 0 -0.78 9.26667 0 -0.8 9.26667 0 -0.82 9.26667 0 -0.84 9.26667 0 -0.86 9.26667 0 -0.88 9.26667 0 -0.9 9.26667 0 -0.92 9.26667 0 -0.94 9.26667 0 -0.96 9.26667 0 -0.98 9.26667 0 0.98 9.33333 0 0.96 9.33333 0 0.94 9.33333 0 0.92 9.33333 0 0.9 9.33333 0 0.88 9.33333 0 0.86 9.33333 0 0.84 9.33333 0 0.82 9.33333 0 0.8 9.33333 0 0.78 9.33333 0 0.76 9.33333 0 0.74 9.33333 0 0.72 9.33333 0 0.7 9.33333 0 0.68 9.33333 0 0.66 9.33333 0 0.64 9.33333 0 0.62 9.33333 0 0.6 9.33333 0 0.58 9.33333 0 0.56 9.33333 0 0.54 9.33333 0 0.52 9.33333 0 0.5 9.33333 0 0.48 9.33333 0 0.46 9.33333 0 0.44 9.33333 0 0.42 9.33333 0 0.4 9.33333 0 0.38 9.33333 0 0.36 9.33333 0 0.34 9.33333 0 0.32 9.33333 0 0.3 9.33333 0 0.28 9.33333 0 0.26 9.33333 0 0.24 9.33333 0 0.22 9.33333 0 0.2 9.33333 0 0.18 9.33333 0 0.16 9.33333 0 0.14 9.33333 0 0.12 9.33333 0 0.1 9.33333 0 0.08 9.33333 0 0.06 9.33333 0 0.04 9.33333 0 0.02 9.33333 0 0 9.33333 0 -0.02 9.33333 0 -0.04 9.33333 0 -0.06 9.33333 0 -0.08 9.33333 0 -0.1 9.33333 0 -0.12 9.33333 0 -0.14 9.33333 0 -0.16 9.33333 0 -0.18 9.33333 0 -0.2 9.33333 0 -0.22 9.33333 0 -0.24 9.33333 0 -0.26 9.33333 0 -0.28 9.33333 0 -0.3 9.33333 0 -0.32 9.33333 0 -0.34 9.33333 0 -0.36 9.33333 0 -0.38 9.33333 0 -0.4 9.33333 0 -0.42 9.33333 0 -0.44 9.33333 0 -0.46 9.33333 0 -0.48 9.33333 0 -0.5 9.33333 0 -0.52 9.33333 0 -0.54 9.33333 0 -0.56 9.33333 0 -0.58 9.33333 0 -0.6 9.33333 0 -0.62 9.33333 0 -0.64 9.33333 0 -0.66 9.33333 0 -0.68 9.33333 0 -0.7 9.33333 0 -0.72 9.33333 0 -0.74 9.33333 0 -0.76 9.33333 0 -0.78 9.33333 0 -0.8 9.33333 0 -0.82 9.33333 0 -0.84 9.33333 0 -0.86 9.33333 0 -0.88 9.33333 0 -0.9 9.33333 0 -0.92 9.33333 0 -0.94 9.33333 0 -0.96 9.33333 0 -0.98 9.33333 0 0.98 9.4 0 0.96 9.4 0 0.94 9.4 0 0.92 9.4 0 0.9 9.4 0 0.88 9.4 0 0.86 9.4 0 0.84 9.4 0 0.82 9.4 0 0.8 9.4 0 0.78 9.4 0 0.76 9.4 0 0.74 9.4 0 0.72 9.4 0 0.7 9.4 0 0.68 9.4 0 0.66 9.4 0 0.64 9.4 0 0.62 9.4 0 0.6 9.4 0 0.58 9.4 0 0.56 9.4 0 0.54 9.4 0 0.52 9.4 0 0.5 9.4 0 0.48 9.4 0 0.46 9.4 0 0.44 9.4 0 0.42 9.4 0 0.4 9.4 0 0.38 9.4 0 0.36 9.4 0 0.34 9.4 0 0.32 9.4 0 0.3 9.4 0 0.28 9.4 0 0.26 9.4 0 0.24 9.4 0 0.22 9.4 0 0.2 9.4 0 0.18 9.4 0 0.16 9.4 0 0.14 9.4 0 0.12 9.4 0 0.1 9.4 0 0.08 9.4 0 0.06 9.4 0 0.04 9.4 0 0.02 9.4 0 0 9.4 0 -0.02 9.4 0 -0.04 9.4 0 -0.06 9.4 0 -0.08 9.4 0 -0.1 9.4 0 -0.12 9.4 0 -0.14 9.4 0 -0.16 9.4 0 -0.18 9.4 0 -0.2 9.4 0 -0.22 9.4 0 -0.24 9.4 0 -0.26 9.4 0 -0.28 9.4 0 -0.3 9.4 0 -0.32 9.4 0 -0.34 9.4 0 -0.36 9.4 0 -0.38 9.4 0 -0.4 9.4 0 -0.42 9.4 0 -0.44 9.4 0 -0.46 9.4 0 -0.48 9.4 0 -0.5 9.4 0 -0.52 9.4 0 -0.54 9.4 0 -0.56 9.4 0 -0.58 9.4 0 -0.6 9.4 0 -0.62 9.4 0 -0.64 9.4 0 -0.66 9.4 0 -0.68 9.4 0 -0.7 9.4 0 -0.72 9.4 0 -0.74 9.4 0 -0.76 9.4 0 -0.78 9.4 0 -0.8 9.4 0 -0.82 9.4 0 -0.84 9.4 0 -0.86 9.4 0 -0.88 9.4 0 -0.9 9.4 0 -0.92 9.4 0 -0.94 9.4 0 -0.96 9.4 0 -0.98 9.4 0 0.98 9.46667 0 0.96 9.46667 0 0.94 9.46667 0 0.92 9.46667 0 0.9 9.46667 0 0.88 9.46667 0 0.86 9.46667 0 0.84 9.46667 0 0.82 9.46667 0 0.8 9.46667 0 0.78 9.46667 0 0.76 9.46667 0 0.74 9.46667 0 0.72 9.46667 0 0.7 9.46667 0 0.68 9.46667 0 0.66 9.46667 0 0.64 9.46667 0 0.62 9.46667 0 0.6 9.46667 0 0.58 9.46667 0 0.56 9.46667 0 0.54 9.46667 0 0.52 9.46667 0 0.5 9.46667 0 0.48 9.46667 0 0.46 9.46667 0 0.44 9.46667 0 0.42 9.46667 0 0.4 9.46667 0 0.38 9.46667 0 0.36 9.46667 0 0.34 9.46667 0 0.32 9.46667 0 0.3 9.46667 0 0.28 9.46667 0 0.26 9.46667 0 0.24 9.46667 0 0.22 9.46667 0 0.2 9.46667 0 0.18 9.46667 0 0.16 9.46667 0 0.14 9.46667 0 0.12 9.46667 0 0.1 9.46667 0 0.08 9.46667 0 0.06 9.46667 0 0.04 9.46667 0 0.02 9.46667 0 0 9.46667 0 -0.02 9.46667 0 -0.04 9.46667 0 -0.06 9.46667 0 -0.08 9.46667 0 -0.1 9.46667 0 -0.12 9.46667 0 -0.14 9.46667 0 -0.16 9.46667 0 -0.18 9.46667 0 -0.2 9.46667 0 -0.22 9.46667 0 -0.24 9.46667 0 -0.26 9.46667 0 -0.28 9.46667 0 -0.3 9.46667 0 -0.32 9.46667 0 -0.34 9.46667 0 -0.36 9.46667 0 -0.38 9.46667 0 -0.4 9.46667 0 -0.42 9.46667 0 -0.44 9.46667 0 -0.46 9.46667 0 -0.48 9.46667 0 -0.5 9.46667 0 -0.52 9.46667 0 -0.54 9.46667 0 -0.56 9.46667 0 -0.58 9.46667 0 -0.6 9.46667 0 -0.62 9.46667 0 -0.64 9.46667 0 -0.66 9.46667 0 -0.68 9.46667 0 -0.7 9.46667 0 -0.72 9.46667 0 -0.74 9.46667 0 -0.76 9.46667 0 -0.78 9.46667 0 -0.8 9.46667 0 -0.82 9.46667 0 -0.84 9.46667 0 -0.86 9.46667 0 -0.88 9.46667 0 -0.9 9.46667 0 -0.92 9.46667 0 -0.94 9.46667 0 -0.96 9.46667 0 -0.98 9.46667 0 0.98 9.53333 0 0.96 9.53333 0 0.94 9.53333 0 0.92 9.53333 0 0.9 9.53333 0 0.88 9.53333 0 0.86 9.53333 0 0.84 9.53333 0 0.82 9.53333 0 0.8 9.53333 0 0.78 9.53333 0 0.76 9.53333 0 0.74 9.53333 0 0.72 9.53333 0 0.7 9.53333 0 0.68 9.53333 0 0.66 9.53333 0 0.64 9.53333 0 0.62 9.53333 0 0.6 9.53333 0 0.58 9.53333 0 0.56 9.53333 0 0.54 9.53333 0 0.52 9.53333 0 0.5 9.53333 0 0.48 9.53333 0 0.46 9.53333 0 0.44 9.53333 0 0.42 9.53333 0 0.4 9.53333 0 0.38 9.53333 0 0.36 9.53333 0 0.34 9.53333 0 0.32 9.53333 0 0.3 9.53333 0 0.28 9.53333 0 0.26 9.53333 0 0.24 9.53333 0 0.22 9.53333 0 0.2 9.53333 0 0.18 9.53333 0 0.16 9.53333 0 0.14 9.53333 0 0.12 9.53333 0 0.1 9.53333 0 0.08 9.53333 0 0.06 9.53333 0 0.04 9.53333 0 0.02 9.53333 0 0 9.53333 0 -0.02 9.53333 0 -0.04 9.53333 0 -0.06 9.53333 0 -0.08 9.53333 0 -0.1 9.53333 0 -0.12 9.53333 0 -0.14 9.53333 0 -0.16 9.53333 0 -0.18 9.53333 0 -0.2 9.53333 0 -0.22 9.53333 0 -0.24 9.53333 0 -0.26 9.53333 0 -0.28 9.53333 0 -0.3 9.53333 0 -0.32 9.53333 0 -0.34 9.53333 0 -0.36 9.53333 0 -0.38 9.53333 0 -0.4 9.53333 0 -0.42 9.53333 0 -0.44 9.53333 0 -0.46 9.53333 0 -0.48 9.53333 0 -0.5 9.53333 0 -0.52 9.53333 0 -0.54 9.53333 0 -0.56 9.53333 0 -0.58 9.53333 0 -0.6 9.53333 0 -0.62 9.53333 0 -0.64 9.53333 0 -0.66 9.53333 0 -0.68 9.53333 0 -0.7 9.53333 0 -0.72 9.53333 0 -0.74 9.53333 0 -0.76 9.53333 0 -0.78 9.53333 0 -0.8 9.53333 0 -0.82 9.53333 0 -0.84 9.53333 0 -0.86 9.53333 0 -0.88 9.53333 0 -0.9 9.53333 0 -0.92 9.53333 0 -0.94 9.53333 0 -0.96 9.53333 0 -0.98 9.53333 0 0.98 9.6 0 0.96 9.6 0 0.94 9.6 0 0.92 9.6 0 0.9 9.6 0 0.88 9.6 0 0.86 9.6 0 0.84 9.6 0 0.82 9.6 0 0.8 9.6 0 0.78 9.6 0 0.76 9.6 0 0.74 9.6 0 0.72 9.6 0 0.7 9.6 0 0.68 9.6 0 0.66 9.6 0 0.64 9.6 0 0.62 9.6 0 0.6 9.6 0 0.58 9.6 0 0.56 9.6 0 0.54 9.6 0 0.52 9.6 0 0.5 9.6 0 0.48 9.6 0 0.46 9.6 0 0.44 9.6 0 0.42 9.6 0 0.4 9.6 0 0.38 9.6 0 0.36 9.6 0 0.34 9.6 0 0.32 9.6 0 0.3 9.6 0 0.28 9.6 0 0.26 9.6 0 0.24 9.6 0 0.22 9.6 0 0.2 9.6 0 0.18 9.6 0 0.16 9.6 0 0.14 9.6 0 0.12 9.6 0 0.1 9.6 0 0.08 9.6 0 0.06 9.6 0 0.04 9.6 0 0.02 9.6 0 0 9.6 0 -0.02 9.6 0 -0.04 9.6 0 -0.06 9.6 0 -0.08 9.6 0 -0.1 9.6 0 -0.12 9.6 0 -0.14 9.6 0 -0.16 9.6 0 -0.18 9.6 0 -0.2 9.6 0 -0.22 9.6 0 -0.24 9.6 0 -0.26 9.6 0 -0.28 9.6 0 -0.3 9.6 0 -0.32 9.6 0 -0.34 9.6 0 -0.36 9.6 0 -0.38 9.6 0 -0.4 9.6 0 -0.42 9.6 0 -0.44 9.6 0 -0.46 9.6 0 -0.48 9.6 0 -0.5 9.6 0 -0.52 9.6 0 -0.54 9.6 0 -0.56 9.6 0 -0.58 9.6 0 -0.6 9.6 0 -0.62 9.6 0 -0.64 9.6 0 -0.66 9.6 0 -0.68 9.6 0 -0.7 9.6 0 -0.72 9.6 0 -0.74 9.6 0 -0.76 9.6 0 -0.78 9.6 0 -0.8 9.6 0 -0.82 9.6 0 -0.84 9.6 0 -0.86 9.6 0 -0.88 9.6 0 -0.9 9.6 0 -0.92 9.6 0 -0.94 9.6 0 -0.96 9.6 0 -0.98 9.6 0 0.98 9.66667 0 0.96 9.66667 0 0.94 9.66667 0 0.92 9.66667 0 0.9 9.66667 0 0.88 9.66667 0 0.86 9.66667 0 0.84 9.66667 0 0.82 9.66667 0 0.8 9.66667 0 0.78 9.66667 0 0.76 9.66667 0 0.74 9.66667 0 0.72 9.66667 0 0.7 9.66667 0 0.68 9.66667 0 0.66 9.66667 0 0.64 9.66667 0 0.62 9.66667 0 0.6 9.66667 0 0.58 9.66667 0 0.56 9.66667 0 0.54 9.66667 0 0.52 9.66667 0 0.5 9.66667 0 0.48 9.66667 0 0.46 9.66667 0 0.44 9.66667 0 0.42 9.66667 0 0.4 9.66667 0 0.38 9.66667 0 0.36 9.66667 0 0.34 9.66667 0 0.32 9.66667 0 0.3 9.66667 0 0.28 9.66667 0 0.26 9.66667 0 0.24 9.66667 0 0.22 9.66667 0 0.2 9.66667 0 0.18 9.66667 0 0.16 9.66667 0 0.14 9.66667 0 0.12 9.66667 0 0.1 9.66667 0 0.08 9.66667 0 0.06 9.66667 0 0.04 9.66667 0 0.02 9.66667 0 0 9.66667 0 -0.02 9.66667 0 -0.04 9.66667 0 -0.06 9.66667 0 -0.08 9.66667 0 -0.1 9.66667 0 -0.12 9.66667 0 -0.14 9.66667 0 -0.16 9.66667 0 -0.18 9.66667 0 -0.2 9.66667 0 -0.22 9.66667 0 -0.24 9.66667 0 -0.26 9.66667 0 -0.28 9.66667 0 -0.3 9.66667 0 -0.32 9.66667 0 -0.34 9.66667 0 -0.36 9.66667 0 -0.38 9.66667 0 -0.4 9.66667 0 -0.42 9.66667 0 -0.44 9.66667 0 -0.46 9.66667 0 -0.48 9.66667 0 -0.5 9.66667 0 -0.52 9.66667 0 -0.54 9.66667 0 -0.56 9.66667 0 -0.58 9.66667 0 -0.6 9.66667 0 -0.62 9.66667 0 -0.64 9.66667 0 -0.66 9.66667 0 -0.68 9.66667 0 -0.7 9.66667 0 -0.72 9.66667 0 -0.74 9.66667 0 -0.76 9.66667 0 -0.78 9.66667 0 -0.8 9.66667 0 -0.82 9.66667 0 -0.84 9.66667 0 -0.86 9.66667 0 -0.88 9.66667 0 -0.9 9.66667 0 -0.92 9.66667 0 -0.94 9.66667 0 -0.96 9.66667 0 -0.98 9.66667 0 0.98 9.73333 0 0.96 9.73333 0 0.94 9.73333 0 0.92 9.73333 0 0.9 9.73333 0 0.88 9.73333 0 0.86 9.73333 0 0.84 9.73333 0 0.82 9.73333 0 0.8 9.73333 0 0.78 9.73333 0 0.76 9.73333 0 0.74 9.73333 0 0.72 9.73333 0 0.7 9.73333 0 0.68 9.73333 0 0.66 9.73333 0 0.64 9.73333 0 0.62 9.73333 0 0.6 9.73333 0 0.58 9.73333 0 0.56 9.73333 0 0.54 9.73333 0 0.52 9.73333 0 0.5 9.73333 0 0.48 9.73333 0 0.46 9.73333 0 0.44 9.73333 0 0.42 9.73333 0 0.4 9.73333 0 0.38 9.73333 0 0.36 9.73333 0 0.34 9.73333 0 0.32 9.73333 0 0.3 9.73333 0 0.28 9.73333 0 0.26 9.73333 0 0.24 9.73333 0 0.22 9.73333 0 0.2 9.73333 0 0.18 9.73333 0 0.16 9.73333 0 0.14 9.73333 0 0.12 9.73333 0 0.1 9.73333 0 0.08 9.73333 0 0.06 9.73333 0 0.04 9.73333 0 0.02 9.73333 0 0 9.73333 0 -0.02 9.73333 0 -0.04 9.73333 0 -0.06 9.73333 0 -0.08 9.73333 0 -0.1 9.73333 0 -0.12 9.73333 0 -0.14 9.73333 0 -0.16 9.73333 0 -0.18 9.73333 0 -0.2 9.73333 0 -0.22 9.73333 0 -0.24 9.73333 0 -0.26 9.73333 0 -0.28 9.73333 0 -0.3 9.73333 0 -0.32 9.73333 0 -0.34 9.73333 0 -0.36 9.73333 0 -0.38 9.73333 0 -0.4 9.73333 0 -0.42 9.73333 0 -0.44 9.73333 0 -0.46 9.73333 0 -0.48 9.73333 0 -0.5 9.73333 0 -0.52 9.73333 0 -0.54 9.73333 0 -0.56 9.73333 0 -0.58 9.73333 0 -0.6 9.73333 0 -0.62 9.73333 0 -0.64 9.73333 0 -0.66 9.73333 0 -0.68 9.73333 0 -0.7 9.73333 0 -0.72 9.73333 0 -0.74 9.73333 0 -0.76 9.73333 0 -0.78 9.73333 0 -0.8 9.73333 0 -0.82 9.73333 0 -0.84 9.73333 0 -0.86 9.73333 0 -0.88 9.73333 0 -0.9 9.73333 0 -0.92 9.73333 0 -0.94 9.73333 0 -0.96 9.73333 0 -0.98 9.73333 0 0.98 9.8 0 0.96 9.8 0 0.94 9.8 0 0.92 9.8 0 0.9 9.8 0 0.88 9.8 0 0.86 9.8 0 0.84 9.8 0 0.82 9.8 0 0.8 9.8 0 0.78 9.8 0 0.76 9.8 0 0.74 9.8 0 0.72 9.8 0 0.7 9.8 0 0.68 9.8 0 0.66 9.8 0 0.64 9.8 0 0.62 9.8 0 0.6 9.8 0 0.58 9.8 0 0.56 9.8 0 0.54 9.8 0 0.52 9.8 0 0.5 9.8 0 0.48 9.8 0 0.46 9.8 0 0.44 9.8 0 0.42 9.8 0 0.4 9.8 0 0.38 9.8 0 0.36 9.8 0 0.34 9.8 0 0.32 9.8 0 0.3 9.8 0 0.28 9.8 0 0.26 9.8 0 0.24 9.8 0 0.22 9.8 0 0.2 9.8 0 0.18 9.8 0 0.16 9.8 0 0.14 9.8 0 0.12 9.8 0 0.1 9.8 0 0.08 9.8 0 0.06 9.8 0 0.04 9.8 0 0.02 9.8 0 0 9.8 0 -0.02 9.8 0 -0.04 9.8 0 -0.06 9.8 0 -0.08 9.8 0 -0.1 9.8 0 -0.12 9.8 0 -0.14 9.8 0 -0.16 9.8 0 -0.18 9.8 0 -0.2 9.8 0 -0.22 9.8 0 -0.24 9.8 0 -0.26 9.8 0 -0.28 9.8 0 -0.3 9.8 0 -0.32 9.8 0 -0.34 9.8 0 -0.36 9.8 0 -0.38 9.8 0 -0.4 9.8 0 -0.42 9.8 0 -0.44 9.8 0 -0.46 9.8 0 -0.48 9.8 0 -0.5 9.8 0 -0.52 9.8 0 -0.54 9.8 0 -0.56 9.8 0 -0.58 9.8 0 -0.6 9.8 0 -0.62 9.8 0 -0.64 9.8 0 -0.66 9.8 0 -0.68 9.8 0 -0.7 9.8 0 -0.72 9.8 0 -0.74 9.8 0 -0.76 9.8 0 -0.78 9.8 0 -0.8 9.8 0 -0.82 9.8 0 -0.84 9.8 0 -0.86 9.8 0 -0.88 9.8 0 -0.9 9.8 0 -0.92 9.8 0 -0.94 9.8 0 -0.96 9.8 0 -0.98 9.8 0 0.98 9.86667 0 0.96 9.86667 0 0.94 9.86667 0 0.92 9.86667 0 0.9 9.86667 0 0.88 9.86667 0 0.86 9.86667 0 0.84 9.86667 0 0.82 9.86667 0 0.8 9.86667 0 0.78 9.86667 0 0.76 9.86667 0 0.74 9.86667 0 0.72 9.86667 0 0.7 9.86667 0 0.68 9.86667 0 0.66 9.86667 0 0.64 9.86667 0 0.62 9.86667 0 0.6 9.86667 0 0.58 9.86667 0 0.56 9.86667 0 0.54 9.86667 0 0.52 9.86667 0 0.5 9.86667 0 0.48 9.86667 0 0.46 9.86667 0 0.44 9.86667 0 0.42 9.86667 0 0.4 9.86667 0 0.38 9.86667 0 0.36 9.86667 0 0.34 9.86667 0 0.32 9.86667 0 0.3 9.86667 0 0.28 9.86667 0 0.26 9.86667 0 0.24 9.86667 0 0.22 9.86667 0 0.2 9.86667 0 0.18 9.86667 0 0.16 9.86667 0 0.14 9.86667 0 0.12 9.86667 0 0.1 9.86667 0 0.08 9.86667 0 0.06 9.86667 0 0.04 9.86667 0 0.02 9.86667 0 0 9.86667 0 -0.02 9.86667 0 -0.04 9.86667 0 -0.06 9.86667 0 -0.08 9.86667 0 -0.1 9.86667 0 -0.12 9.86667 0 -0.14 9.86667 0 -0.16 9.86667 0 -0.18 9.86667 0 -0.2 9.86667 0 -0.22 9.86667 0 -0.24 9.86667 0 -0.26 9.86667 0 -0.28 9.86667 0 -0.3 9.86667 0 -0.32 9.86667 0 -0.34 9.86667 0 -0.36 9.86667 0 -0.38 9.86667 0 -0.4 9.86667 0 -0.42 9.86667 0 -0.44 9.86667 0 -0.46 9.86667 0 -0.48 9.86667 0 -0.5 9.86667 0 -0.52 9.86667 0 -0.54 9.86667 0 -0.56 9.86667 0 -0.58 9.86667 0 -0.6 9.86667 0 -0.62 9.86667 0 -0.64 9.86667 0 -0.66 9.86667 0 -0.68 9.86667 0 -0.7 9.86667 0 -0.72 9.86667 0 -0.74 9.86667 0 -0.76 9.86667 0 -0.78 9.86667 0 -0.8 9.86667 0 -0.82 9.86667 0 -0.84 9.86667 0 -0.86 9.86667 0 -0.88 9.86667 0 -0.9 9.86667 0 -0.92 9.86667 0 -0.94 9.86667 0 -0.96 9.86667 0 -0.98 9.86667 0 0.98 9.93333 0 0.96 9.93333 0 0.94 9.93333 0 0.92 9.93333 0 0.9 9.93333 0 0.88 9.93333 0 0.86 9.93333 0 0.84 9.93333 0 0.82 9.93333 0 0.8 9.93333 0 0.78 9.93333 0 0.76 9.93333 0 0.74 9.93333 0 0.72 9.93333 0 0.7 9.93333 0 0.68 9.93333 0 0.66 9.93333 0 0.64 9.93333 0 0.62 9.93333 0 0.6 9.93333 0 0.58 9.93333 0 0.56 9.93333 0 0.54 9.93333 0 0.52 9.93333 0 0.5 9.93333 0 0.48 9.93333 0 0.46 9.93333 0 0.44 9.93333 0 0.42 9.93333 0 0.4 9.93333 0 0.38 9.93333 0 0.36 9.93333 0 0.34 9.93333 0 0.32 9.93333 0 0.3 9.93333 0 0.28 9.93333 0 0.26 9.93333 0 0.24 9.93333 0 0.22 9.93333 0 0.2 9.93333 0 0.18 9.93333 0 0.16 9.93333 0 0.14 9.93333 0 0.12 9.93333 0 0.1 9.93333 0 0.08 9.93333 0 0.06 9.93333 0 0.04 9.93333 0 0.02 9.93333 0 0 9.93333 0 -0.02 9.93333 0 -0.04 9.93333 0 -0.06 9.93333 0 -0.08 9.93333 0 -0.1 9.93333 0 -0.12 9.93333 0 -0.14 9.93333 0 -0.16 9.93333 0 -0.18 9.93333 0 -0.2 9.93333 0 -0.22 9.93333 0 -0.24 9.93333 0 -0.26 9.93333 0 -0.28 9.93333 0 -0.3 9.93333 0 -0.32 9.93333 0 -0.34 9.93333 0 -0.36 9.93333 0 -0.38 9.93333 0 -0.4 9.93333 0 -0.42 9.93333 0 -0.44 9.93333 0 -0.46 9.93333 0 -0.48 9.93333 0 -0.5 9.93333 0 -0.52 9.93333 0 -0.54 9.93333 0 -0.56 9.93333 0 -0.58 9.93333 0 -0.6 9.93333 0 -0.62 9.93333 0 -0.64 9.93333 0 -0.66 9.93333 0 -0.68 9.93333 0 -0.7 9.93333 0 -0.72 9.93333 0 -0.74 9.93333 0 -0.76 9.93333 0 -0.78 9.93333 0 -0.8 9.93333 0 -0.82 9.93333 0 -0.84 9.93333 0 -0.86 9.93333 0 -0.88 9.93333 0 -0.9 9.93333 0 -0.92 9.93333 0 -0.94 9.93333 0 -0.96 9.93333 0 -0.98 9.93333 0
</DataArray>

      </Points>
      <PointData Vectors="UU" ><DataArray Name="UU" NumberOfComponents="3" type="Float32" format="ascii" >
 0 0 0 0 0 0 0 0 0 0 0 0 0 0 0 0 0 0 0 0 0 0 0 0 0 0 0 0 0 0 0 0 0 0 0 0 0 0 0 0 0 0 0 0 0 0 0 0 0 0 0 0 0 0 0 0 0 0 0 0 0 0 0 0 0 0 0 0 0 0 0 0 0 0 0 0 0 0 0 0 0 0 0 0 0 0 0 0 0 0 0 0 0 0 0 0 0 0 0 0 0 0 0 0 0 0 0 0 0 0 0 0 0 0 0 0 0 0 0 0 0 0 0 0 0 0 0 0 0 0 0 0 0 0 0 0 0 0 0 0 0 0 0 0 0 0 0 0 0 0 0 0 0 0 0 0 0 0 0 0 0 0 0 0 0 0 0 0 0 0 0 0 0 0 0 0 0 0 0 0 0 0 0 0 0 0 0 0 0 0 0 0 0 0 0 0 0 0 0 0 0 0 0 0 0 0 0 0 0 0 0 0 0 0 0 0 0 0 0 0 0 0 0 0 0 0 0 0 0 0 0 0 0 0 0 0 0 0 0 0 0 0 0 0 0 0 0 0 0 0 0 0 0 0 0 0 0 0 0 0 0 0 0 0 0 0 0 0 0 0 0 0 0 0 0 0 0 0 0 0 0 0 0 0 0 0 0 0 0 0 0 0 0 0 0 0 0 0 0 0 0 0 0 0 0 0 0 0 0 0 0 0 0 0 0 0 0 0 0 0 0 0 0 0 0 0 0 0 0 0 0 0 0 0 0 0 0 0 0 0 0 0 0 0 0 0 0 0 0 0 0 0 0 0 0 0 0 0 0 0 0 0 0 0 0 0 0 0 0 0 0 0 0 0 0 0 0 0 0 0 0 0 0 0 0 0 0 0 0 0 0 0 0 0 0 0 0 0 0 0 0 0 0 0 0 0 0 0 0 0 0 0 0 0 0 0 0 0 0 0 0 0 0 0 0 0 0 0 0 0 0 0 0 0 0 0 0 0 0 0 0 0 0 0 0 0 0 0 0 0 0 0 0 0 0 0 0 0 0 0 0 0 0 0 0 0 0 0 0 0 0 0 0 0 0 0 0 0 0 0 0 0 0 0 0 0 0 0 0 0 0 0 0 0 0 0 0 0 0 0 0 0 0 0 0 0 0 0 0 0 0 0 0 0 0 0 0 0 0 0 0 0 0 0 0 0 0 0 0 0 0 0 0 0 0 0 0 0 0 0 0 0 0 0 0 0 0 0 0 0 0 0 0 0 0 0 0 0 0 0 0 0 0 0 0 0 0 0 0 0 0 0 0 0 0 0 0 0 0 0 0 0 0 0 0 0 0 0 0 0 0 0 0 0 0 0 0 0 0 0 0 0 0 0 0 0 0 0 0 0 0 0 0 0 0 0 0 0 0 0 0 0 0 0 0 0 0 0 0 0 0 0 0 0 0 0 0 0 0 0 0 0 0 0 0 0 0 0 0 0 0 0 0 0 0 0 0 0 0 0 0 0 0 0 0 0 0 0 0 0 0 0 0 0 0 0 0 0 0 0 0 0 0 0 0 0 0 0 0 0 0 0 0 0 0 0 0 0 0 0 0 0 0 0 0 0 0 0 0 0 0 0 0 0 0 0 0 0 0 0 0 0 0 0 0 0 0 0 0 0 0 0 0 0 0 0 0 0 0 0 0 0 0 0 0 0 0 0 0 0 0 0 0 0 0 0 0 0 0 0 0 0 0 0 0 0 0 0 0 0 0 0 0 0 0 0 0 0 0 0 0 0 0 0 0 0 0 0 0 0 0 0 0 0 0 0 0 0 0 0 0 0 0 0 0 0 0 0 0 0 0 0 0 0 0 0 0 0 0 0 0 0 0 0 0 0 0 0 0 0 0 0 0 0 0 0 0 0 0 0 0 0 0 0 0 0 0 0 0 0 0 0 0 0 0 0 0 0 0 0 0 0 0 0 0 0 0 0 0 0 0 0 0 0 0 0 0 0 0 0 0 0 0 0 0 0 0 0 0 0 0 0 0 0 0 0 0 0 0 0 0 0 0 0 0 0 0 0 0 0 0 0 0 0 0 0 0 0 0 0 0 0 0 0 0 0 0 0 0 0 0 0 0 0 0 0 0 0 0 0 0 0 0 0 0 0 0 0 0 0 0 0 0 0 0 0 0 0 0 0 0 0 0 0 0 0 0 0 0 0 0 0 0 0 0 0 0 0 0 0 0 0 0 0 0 0 0 0 0 0 0 0 0 0 0 0 0 0 0 0 0 0 0 0 0 0 0 0 0 0 0 0 0 0 0 0 0 0 0 0 0 0 0 0 0 0 0 0 0 0 0 0 0 0 0 0 0 0 0 0 0 0 0 0 0 0 0 0 0 0 0 0 0 0 0 0 0 0 0 0 0 0 0 0 0 0 0 0 0 0 0 0 0 0 0 0 0 0 0 0 0 0 0 0 0 0 0 0 0 0 0 0 0 0 0 0 0 0 0 0 0 0 0 0 0 0 0 0 0 0 0 0 0 0 0 0 0 0 0 0 0 0 0 0 0 0 0 0 0 0 0 0 0 0 0 0 0 0 0 0 0 0 0 0 0 0 0 0 0 0 0 0 0 0 0 0 0 0 0 0 0 0 0 0 0 0 0 0 1.31 0 0 1.31 0 0 1.31 0 0 1.31 0 0 1.31 0 0 1.31 0 0 1.31 0 0 1.31 0 0 1.31 0 0 1.31 0 0 1.31 0 0 1.31 0 0 1.31 0 0 1.31 0 0 1.31 0 0 1.31 0 0 1.31 0 0 1.31 0 0 1.31 0 0 0 0 0 0 0 0 0 0 0 0 0 0 0 0 0 0 0 0 0 0 0 0 0 0 0 0 0 0 0 0 0 0 0 0 0 0 0 0 0 0 0 0 0 0 0 0 0 0 0 0 0 0 0 0 0 0 0 0 0 0 0 0 0 0 0 0 0 0 0 0 0 0 0 0 0 0 0 0 0 0 0 0 0 0 0 0 0 0 0 0 0 0 0 0 0 0 0 0 0 0 0 0 0 0 0 0 0 0 0 0 0 0 0 0 0 0 0 0 0 0 0 0 0 0 0 0 0 0 0 0 0 0 0 0 0 0 0 0 0 0 0 0 0 0 0 0 0 0 0 0 0 0 0 0 0 0 0 0 0 0 0 0 0 0 0 0 0 0 0 0 0 0 0 0 0 0 0 0 0 0 0 0 0 0 0 0 0 0 0 0 0 0 0 0 0 0 0 0 0 0 0 0 0 0 0 0 0 0 0 0 0 0 0 0 0 0 0 0 0 0 0 0 0 0 0 0 0 0 0 0 0 0 0 0 0 0 0 0 0 0 0 0 0 0 0 0 0 0 0 0 0 0 0 0 0 0 0 0 0 0 0 1.0543 0 0 1.0543 0 0 1.0543 0 0 1.0543 0 0 1.0543 0 0 1.0543 0 0 1.0543 0 0 1.0543 0 0 1.0543 0 0 1.0543 0 0 1.0543 0 0 1.0543 0 0 1.0543 0 0 1.0543 0 0 1.0543 0 0 1.0543 0 0 1.0543 0 0 1.0543 0 0 1.0543 0 0 1.0543 0 0 1.0543 0 0 1.0543 0 0 1.0543 0 0 1.0543 0 0 1.0543 0 0 1.0543 0 0 1.0543 0 0 1.0543 0 0 1.0543 0 0 1.0543 0 0 1.0543 0 0 1.0543 0 0 1.0543 0 0 1.0543 0 0 1.0543 0 0 1.0543 0 0 1.0543 0 0 1.0543 0 0 1.0543 0 0 1.0543 0 0 1.0543 0 0 1.0543 0 0 1.0543 0 0 1.0543 0 0 1.0543 0 0 1.0543 0 0 1.0543 0 0 1.0543 0 0 1.0543 0 0 1.0543 0 0 1.0543 0 0 1.0543 0 0 1.0543 0 0 1.0543 0 0 1.0543 0 0 1.0543 0 0 1.0543 0 0 1.0543 0 0 1.0543 0 0 1.0543 0 0 1.0543 0 0 1.0543 0 0 1.0543 0 0 1.0543 0 0 1.0543 0 0 1.0543 0 0 1.0543 0 0 1.0543 0 0 0 0 0 0 0 0 0 0 0 0 0 0 0 0 0 0 0 0 0 0 0 0 0 0 0 0 0 0 0 0 0 0 0 0 0 0 0 0 0 0 0 0 0 0 0 0 0 0 0 0 0 0 0 0 0 0 0 0 0 0 0 0 0 0 0 0 0 0 0 0 0 0 0 0 0 0 0 0 0 0 0 0 0 0 0 0 0 0 0 0 0 0 0 0 0 0 0 0 0 0 0 0 0 0 0 0 0 0 0 0 0 0 0 0 0 0 0 0 0 0 0 0 0 0 0 0 0 0 0 0 0 0 0 0 0 0 0 0 0 0 0 0 0 0 0 0 0 0 0 0 0 0 0 0 0 0 0 0 0 0 0 0 0 0 0 0 0 0 0 0 0 0 0 0 0 0 0 0 0 0 0 0 0 0 0 0 0 0 0 0 0 0 0 0 0 0 0 0 0 0 0 0 0 0 0 0 0 0 0 0 0 0 0 0 0 0 0 0 0 0 0 0 0 0 0 0 0 0 0 0 0 0 0 0 0 0 0 0 0 0 0 0 0 0 0 0 0 0 0 0 0 0 0 0 0 0 0 0 0 0 0 0 0 0 0 0 0 0 0 0 0 0 0 0 0 0 0 0 0 0 0 0 0 0 0 0 0 0 0 0 0 0 0 0 0 0 0 0 0 0 0 0 0 0 0 0 0 0 0 0 0 0 0 0 0 0 0 0 0 0 0 0 0 0 0 0 0 0 0 0 0 0 0 0 0 0 0 0 0 0 0 0 0 0 0 0 0 0 0 0 0 0 0 0 0 0 0 0 0 0 0 0 0 0 0 0 0 0 0 0 0 0 0 0 0 0 0 0 0 0 0 0 0 0 0 0 0 0 0 0 0 0 0 0 0 0 0 0 0 0 0 0 0 0 0 0 0 0 0 0 0 0 0 0 0 0 0 0 0 0 0 0 0 0 0 0 0 0 0 0 0 0 0 0 0 0 0 0 0 0 0 0 0 0 0 0 0 0 0 0 0 0 0 0 0 0 0 0 0 0 0 0 0 0 0 0 0 0 0 0 0 0 0 0 0 0 0 0 0 0 0 0 0 0 0 0 0 0 0 0 0 0 0 0 0 0 0 0 0 0 0 0 0 0 0 0 0 0 0 0 0 0 0 0 0 0 0 0 0 0 0 0 0 0 0 0 0 0 0 0 0 0 0 0 0 0 0 0 0 0 0 0 0 0 0 0 0 0 0 0 0 0 0 0 0 0 0 0 0 0 0 0 0 0 0 0 0 0 0 0 0 0 0 0 0 0 0 0 0 0 0 0 0 0 0 0 0 0 0 0 0 0 0 0 0 0 0 0 0 0 0 0 0 0 0 0 0 0 0 0 0 0 0 0 0 0 0 0 0 0 0 0 0 0 0 0 0 0 0 0 0 0 0 0 0 0 0 0 0 0 0 0 0 0 0 0 0 0 0 0 0 0 0 0 0 0 0 0 0 0 0 0 0 0 0 0 0 0 0 0 0 0 0 0 0 0 0 0 0 0 0 0 0 0 0 0 0 0 0 0 0 0 0 0 0 0 0 0 0 0 0 0 0 0 0 0 0 0 0 0 0 0 0 0 0 0 0 0 0 0 0 0 0 0 0 0 0 0 0 0 0 0 0 0 0 0 0 0 0 0 0 0 0 0 0 0 0 0 0 0 0 0 0 0 0 0 0 0 0 0 0 0 0 0 0 0 0 0 0 0 0 0 0 0 0 0 0 0 0 0 0 0 0 0 0 0 0 0 0 0 0 0 0 0 0 0 0 0 0 0 0 0 0 0 0 0 0 0 0 0 0 0 0 0 0 0 0 0 0 0 0 0 0 0 0 0 0 0 0 0 0 0 0 0 0 0 0 0 0 0 0 0 0 0 0 0 0 0 0 0 0 0 0 0 0 0 0 0 0 0 0 0 0 0 0 0 0 0 0 0 0 0 0 0 0 0 0 0 0 0 0 0 0 0 0 0 0 0 0 0 0 0 0 0 0 0 0 0 0 0 0 0 0 0 0 0 0 0 0 0 0 0 0 0 0 0 0 0 0 0 0 0 0 0 0 0 0 0 0 0 0 0 0 0 0 0 0 0 0 0 0 0 0 0 0 0 0 0 0 0 0 0 0 0 0 0 0 0 0 0 0 0 0 0 0 0 0 0 0 0 0 0 0 0 0 0 0 0 0 0 0 0 0 0 0 0 0 0 0 0 0 0 0 0 0 0 0 0 0 0 0 0 0 0 0 0 0 0 0 0 0 0 0 0 0 0 0 0 0 0 0 0 0 0 0 0 0 0 0 0 0 0 0 0 0 0 0 0 0 0 0 0 0 0 0 0 0 0 0 0 0 0 0 0 0 0 0 0 0 0 0 0 0 0 0 0 0 0 0 0 0 0 0 0 0 0 0 0 0 0 0 0 0 0 0 0 0 0 0 0 0 0 0 0 0 0 0 0 0 0 0 0 0 0 0 0 0 0 0 0 0 0 0 0 0 0 0 0 0 0 0 0 0 0 0 0 0 0 0 0 0 0 0 0 0 0 0 0 0 0 0 0 0 0 0 0 0 0 0 0 0 0 0 0 0 0 0 0 0 0 0 0 0 0 0 0 0 0 0 0 0 0 0 0 0 0 0 0 0 0 0 0 0 0 0 0 0 0 0 0 0 0 0 0 0 0 0 0 0 0 0 0 0 0 0 0 0 0 0 0 0 0 0 0 0 0 0 0 0 0 0 0 0 0 0 0 0 0 0 0 0 0 0 0 0 0 0 0 0 0 0 0 0 0 0 0 0 0 0 0 0 0 0 0 0 0 0 0 0 0 0 0 0 0 0 0 0 0 0 0 0 0 0 0 0 0 0 0 0 0 0 0 0 0 0 0 0 0 0 0 0 0 0 0 0 0 0 0 0 0 0 0 0 0 0 0 0 0 0 0 0 0 0 0 0 0 0 0 0 0 0 0 0 0 0 0 0 0 0 0 0 0 0 0 0 0 0 0 0 0 0 0 0 0 0 0 0 0 0 0 0 0 0 0 0 0 0 0 0 0 0 0 0 0 0 0 0 0 0 0 0 0 0 0 0 0 0 0 0 0 0 0 0 0 0 0 0 0 0 0 0 0 0 0 0 0 0 0 0 0 0 0 0 0 0 0 0 0 0 0 0 0 0 0 0 0 0 0 0 0 0 0 0 0 0 0 0 0 0 0 0 0 0 0 0 0 0 0 0 0 0 0 0 0 0 0 0 0 0 0 0 0 0 0 0 0 0 0 0 0 0 0 0 0 0 0 0 0 0 0 0 0 0 0 0 0 0 0 0 0 0 0 0 0 0 0 0 0 0 0 0 0 0 0 0 0 0 0 0 0 0 0 0 0 0 0 0 0 0 0 0 0 0 0 0 0 0 0 0 0 0 0 0 0 0 0 0 0 0 0 0 0 0 0 0 0 0 0 0 0 0 0 0 0 0 0 0 0 0 0 0 0 0 0 0 0 0 0 0 0 0 0 0 0 0 0 0 0 0 0 0 0 0 0 0 0 0 0 0 0 0 0 0 0 0 0 0 0 0 0 0 0 0 0 0 0 0 0 0 0 0 0 0 0 0 0 0 0 0 0 0 0 0 0 0 0 0 0 0 0 0 0 0 0 0 0 0 0 0 0 0 0 0 0 0 0 0 0 0 0 0 0 0 0 0 0 0 0 0 0 0 0 0 0 0 0 0 0 0 0 0 0 0 0 0 0 0 0 0 0 0 0 0 0 0 0 0 0 0 0 0 0 0 0 0 0 0 0 0 0 0 0 0 0 0 0 0 0 0 0 0 0 0 0 0 0 0 0 0 0 0 0 0 0 0 0 0 0 0 0 0 0 0 0 0 0 0 0 0 0 0 0 0 0 0 0 0 0 0 0 0 0 0 0 0 0 0 0 0 0 0 0 0 0 0 0 0 0 0 0 0 0 0 0 0 0 0 0 0 0 0 0 0 0 0 0 0 0 0 0 0 0 0 0 0 0 0 0 0 0 0 0 0 0 0 0 0 0 0 0 0 0 0 0 0 0 0 0 0 0 0 0 0 0 0 0 0 0 0 0 0 0 0 0 0 0 0 0 0 0 0 0 0 0 0 0 0 0 0 0 0 0 0 0 0 0 0 0 0 0 0 0 0 0 0 0 0 0 0 0 0 0 0 0 0 0 0 0 0 0 0 0 0 0 0 0 0 0 0 0 0 0 0 0 0 0 0 0 0 0 0 0 0 0 0 0 0 0 0 0 0 0 0 0 0 0 0 0 0 0 0 0 0 0 0 0 0 0 0 0 0 0 0 0 0 0 0 0 0 0 0 0 0 0 0 0 0 0 0 0 0 0 0 0 0 0 0 0 0 0 0 0 0 0 0 0 0 0 0 0 0 0 0 0 0 0 0 0 0 0 0 0 0 0 0 0 0 0 0 0 0 0 0 0 0 0 0 0 0 0 0 0 0 0 0 0 0 0 0 0 0 0 0 0 0 0 0 0 0 0 0 0 0 0 0 0 0 0 0 0 0 0 0 0 0 0 0 0 0 0 0 0 0 0 0 0 0 0 0 0 0 0 0 0 0 0 0 0 0 0 0 0 0 0 0 0 0 0 0 0 0 0 0 0 0 0 0 0 0 0 0 0 0 0 0 0 0 0 0 0 0 0 0 0 0 0 0 0 0 0 0 0 0 0 0 0 0 0 0 0 0 0 0 0 0 0 0 0 0 0 0 0 0 0 0 0 0 0 0 0 0 0 0 0 0 0 0 0 0 0 0 0 0 0 0 0 0 0 0 0 0 0 0 0 0 0 0 0 0 0 0 0 0 0 0 0 0 0 0 0 0 0 0 0 0 0 0 0 0 0 0 0 0 0 0 0 0 0 0 0 0 0 0 0 0 0 0 0 0 0 0 0 0 0 0 0 0 0 0 0 0 0 0 0 0 0 0 0 0 0 0 0 0 0 0 0 0 0 0 0 0 0 0 0 0 0 0 0 0 0 0 0 0 0 0 0 0 0 0 0 0 0 0 0 0 0 0 0 0 0 0 0 0 0 0 0 0 0 0 0 0 0 0 0 0 0 0 0 0 0 0 0 0 0 0 0 0 0 0 0 0 0 0 0 0 0 0 0 0 0 0 0 0 0 0 0 0 0 0 0 0 0 0 0 0 0 0 0 0 0 0 0 0 0 0 0 0 0 0 0 0 0 0 0 0 0 0 0 0 0 0 0 0 0 0 0 0 0 0 0 0 0 0 0 0 0 0 0 0 0 0 0 0 0 0 0 0 0 0 0 0 0 0 0 0 0 0 0 0 0 0 0 0 0 0 0 0 0 0 0 0 0 0 0 0 0 0 0 0 0 0 0 0 0 0 0 0 0 0 0 0 0 0 0 0 0 0 0 0 0 0 0 0 0 0 0 0 0 0 0 0 0 0 0 0 0 0 0 0 0 0 0 0 0 0 0 0 0 0 0 0 0 0 0 0 0 0 0 0 0 0 0 0 0 0 0 0 0 0 0 0 0 0 0 0 0 0 0 0 0 0 0 0 0 0 0 0 0 0 0 0 0 0 0 0 0 0 0 0 0 0 0 0 0 0 0 0 0 0 0 0 0 0 0 0 0 0 0 0 0 0 0 0 0 0 0 0 0 0 0 0 0 0 0 0 0 0 0 0 0 0 0 0 0 0 0 0 0 0 0 0 0 0 0 0 0 0 0 0 0 0 0 0 0 0 0 0 0 0 0 0 0 0 0 0 0 0 0 0 0 0 0 0 0 0 0 0 0 0 0 0 0 0 0 0 0 0 0 0 0 0 0 0 0 0 0 0 0 0 0 0 0 0 0 0 0 0 0 0 0 0 0 0 0 0 0 0 0 0 0 0 0 0 0 0 0 0 0 0 0 0 0 0 0 0 0 0 0 0 0 0 0 0 0 0 0 0 0 0 0 0 0 0 0 0 0 0 0 0 0 0 0 0 0 0 0 0 0 0 0 0 0 0 0 0 0 0 0 0 0 0 0 0 0 0 0 0 0 0 0 0 0 0 0 0 0 0 0 0 0 0 0 0 0 0 0 0 0 0 0 0 0 0 0 0 0 0 0 0 0 0 0 0 0 0 0 0 0 0 0 0 0 0 0 0 0 0 0 0 0 0 0 0 0 0 0 0 0 0 0 0 0 0 0 0 0 0 0 0 0 0 0 0 0 0 0 0 0 0 0 0 0 0 0 0 0 0 0 0 0 0 0 0 0 0 0 0 0 0 0 0 0 0 0 0 0 0 0 0 0 0 0 0 0 0 0 0 0 0 0 0 0 0 0 0 0 0 0 0 0 0 0 0 0 0 0 0 0 0 0 0 0 0 0 0 0 0 0 0 0 0 0 0 0 0 0 0 0 0 0 0 0 0 0 0 0 0 0 0 0 0 0 0 0 0 0 0 0 0 0 0 0 0 0 0 0 0 0 0 0 0 0 0 0 0 0 0 0 0 0 0 0 0 0 0 0 0 0 0 0 0 0 0 0 0 0 0 0 0 0 0 0 0 0 0 0 0 0 0 0 0 0 0 0 0 0 0 0 0 0 0 0 0 0 0 0 0 0 0 0 0 0 0 0 0 0 0 0 0 0 0 0 0 0 0 0 0 0 0 0 0 0 0 0 0 0 0 0 0 0 0 0 0 0 0 0 0 0 0 0 0 0 0 0 0 0 0 0 0 0 0 0 0 0 0 0 0 0 0 0 0 0 0 0 0 0 0 0 0 0 0 0 0 0 0 0 0 0 0 0 0 0 0 0 0 0 0 0 0 0 0 0 0 0 0 0 0 0 0 0 0 0 0 0 0 0 0 0 0 0 0 0 0 0 0 0 0 0 0 0 0 0 0 0 0 0 0 0 0 0 0 0 0 0 0 0 0 0 0 0 0 0 0 0 0 0 0 0 0 0 0 0 0 0 0 0 0 0 0 0 0 0 0 0 0 0 0 0 0 0 0 0 0 0 0 0 0 0 0 0 0 0 0 0 0 0 0 0 0 0 0 0 0 0 0 0 0 0 0 0 0 0 0 0 0 0 0 0 0 0 0 0 0 0 0 0 0 0 0 0 0 0 0 0 0 0 0 0 0 0 0 0 0 0 0 0 0 0 0 0 0 0 0 0 0 0 0 0 0 0 0 0 0 0 0 0 0 0 0 0 0 0 0 0 0 0 0 0 0 0 0 0 0 0 0 0 0 0 0 0 0 0 0 0 0 0 0 0 0 0 0 0 0 0 0 0 0 0 0 0 0 0 0 0 0 0 0 0 0 0 0 0 0 0 0 0 0 0 0 0 0 0 0 0 0 0 0 0 0 0 0 0 0 0 0 0 0 0 0 0 0 0 0 0 0 0 0 0 0 0 0 0 0 0 0 0 0 0 0 0 0 0 0 0 0 0 0 0 0 0 0 0 0 0 0 0 0 0 0 0 0 0 0 0 0 0 0 0 0 0 0 0 0 0 0 0 0 0 0 0 0 0 0 0 0 0 0 0 0 0 0 0 0 0 0 0 0 0 0 0 0 0 0 0 0 0 0 0 0 0 0 0 0 0 0 0 0 0 0 0 0 0 0 0 0 0 0 0 0 0 0 0 0 0 0 0 0 0 0 0 0 0 0 0 0 0 0 0 0 0 0 0 0 0 0 0 0 0 0 0 0 0 0 0 0 0 0 0 0 0 0 0 0 0 0 0 0 0 0 0 0 0 0 0 0 0 0 0 0 0 0 0 0 0 0 0 0 0 0 0 0 0 0 0 0 0 0 0 0 0 0 0 0 0 0 0 0 0 0 0 0 0 0 0 0 0 0 0 0 0 0 0 0 0 0 0 0 0 0 0 0 0 0 0 0 0 0 0 0 0 0 0 0 0 0 0 0 0 0 0 0 0 0 0 0 0 0 0 0 0 0 0 0 0 0 0 0 0 0 0 0 0 0 0 0 0 0 0 0 0 0 0 0 0 0 0 0 0 0 0 0 0 0 0 0 0 0 0 0 0 0 0 0 0 0 0 0 0 0 0 0 0 0 0 0 0 0 0 0 0 0 0 0 0 0 0 0 0 0 0 0 0 0 0 0 0 0 0 0 0 0 0 0 0 0 0 0 0 0 0 0 0 0 0 0 0 0 0 0 0 0 0 0 0 0 0 0 0 0 0 0 0 0 0 0 0 0 0 0 0 0 0 0 0 0 0 0 0 0 0 0 0 0 0 0 0 0 0 0 0 0 0 0 0 0 0 0 0 0 0 0 0 0 0 0 0 0 0 0 0 0 0 0 0 0 0 0 0 0 0 0 0 0 0 0 0 0 0 0 0 0 0 0 0 0 0 0 0 0 0 0 0 0 0 0 0 0 0 0 0 0 0 0 0 0 0 0 0 0 0 0 0 0 0 0 0 0 0 0 0 0 0 0 0 0 0 0 0 0 0 0 0 0 0 0 0 0 0 0 0 0 0 0 0 0 0 0 0 0 0 0 0 0 0 0 0 0 0 0 0 0 0 0 0 0 0 0 0 0 0 0 0 0 0 0 0 0 0 0 0 0 0 0 0 0 0 0 0 0 0 0 0 0 0 0 0 0 0 0 0 0 0 0 0 0 0 0 0 0 0 0 0 0 0 0 0 0 0 0 0 0 0 0 0 0 0 0 0 0 0 0 0 0 0 0 0 0 0 0 0 0 0 0 0 0 0 0 0 0 0 0 0 0 0 0 0 0 0 0 0 0 0 0 0 0 0 0 0 0 0 0 0 0 0 0 0 0 0 0 0 0 0 0 0 0 0 0 0 0 0 0 0 0 0 0 0 0 0 0 0 0 0 0 0 0 0 0 0 0 0 0 0 0 0 0 0 0 0 0 0 0 0 0 0 0 0 0 0 0 0 0 0 0 0 0 0 0 0 0 0 0 0 0 0 0 0 0 0 0 0 0 0 0 0 0 0 0 0 0 0 0 0 0 0 0 0 0 0 0 0 0 0 0 0 0 0 0 0 0 0 0 0 0 0 0 0 0 0 0 0 0 0 0 0 0 0 0 0 0 0 0 0 0 0 0 0 0 0 0 0 0 0 0 0 0 0 0 0 0 0 0 0 0 0 0 0 0 0 0 0 0 0 0 0 0 0 0 0 0 0 0 0 0 0 0 0 0 0 0 0 0 0 0 0 0 0 0 0 0 0 0 0 0 0 0 0 0 0 0 0 0 0 0 0 0 0 0 0 0 0 0 0 0 0 0 0 0 0 0 0 0 0 0 0 0 0 0 0 0 0 0 0 0 0 0 0 0 0 0 0 0 0 0 0 0 0 0 0 0 0 0 0 0 0 0 0 0 0 0 0 0 0 0 0 0 0 0 0 0 0 0 0 0 0 0 0 0 0 0 0 0 0 0 0 0 0 0 0 0 0 0 0 0 0 0 0 0 0 0 0 0 0 0 0 0 0 0 0 0 0 0 0 0 0 0 0 0 0 0 0 0 0 0 0 0 0 0 0 0 0 0 0 0 0 0 0 0 0 0 0 0 0 0 0 0 0 0 0 0 0 0 0 0 0 0 0 0 0 0 0 0 0 0 0 0 0 0 0 0 0 0 0 0 0 0 0 0 0 0 0 0 0 0 0 0 0 0 0 0 0 0 0 0 0 0 0 0 0 0 0 0 0 0 0 0 0 0 0 0 0 0 0 0 0 0 0 0 0 0 0 0 0 0 0 0 0 0 0 0 0 0 0 0 0 0 0 0 0 0 0 0 0 0 0 0 0 0 0 0 0 0 0 0 0 0 0 0 0 0 0 0 0 0 0 0 0 0 0 0 0 0 0 0 0 0 0 0 0 0 0 0 0 0 0 0 0 0 0 0 0 0 0 0 0 0 0 0 0 0 0 0 0 0 0 0 0 0 0 0 0 0 0 0 0 0 0 0 0 0 0 0 0 0 0 0 0 0 0 0 0 0 0 0 0 0 0 0 0 0 0 0 0 0 0 0 0 0 0 0 0 0 0 0 0 0 0 0 0 0 0 0 0 0 0 0 0 0 0 0 0 0 0 0 0 0 0 0 0 0 0 0 0 0 0 0 0 0 0 0 0 0 0 0 0 0 0 0 0 0 0 0 0 0 0 0 0 0 0 0 0 0 0 0 0 0 0 0 0 0 0 0 0 0 0 0 0 0 0 0 0 0 0 0 0 0 0 0 0 0 0 0 0 0 0 0 0 0 0 0 0 0 0 0 0 0 0 0 0 0 0 0 0 0 0 0 0 0 0 0 0 0 0 0 0 0 0 0 0 0 0 0 0 0 0 0 0 0 0 0 0 0 0 0 0 0 0 0 0 0 0 0 0 0 0 0 0 0 0 0 0 0 0 0 0 0 0 0 0 0 0 0 0 0 0 0 0 0 0 0 0 0 0 0 0 0 0 0 0 0 0 0 0 0 0 0 0 0 0 0 0 0 0 0 0 0 0 0 0 0 0 0 0 0 0 0 0 0 0 0 0 0 0 0 0 0 0 0 0 0 0 0 0 0 0 0 0 0 0 0 0 0 0 0 0 0 0 0 0 0 0 0 0 0 0 0 0 0 0 0 0 0 0 0 0 0 0 0 0 0 0 0 0 0 0 0 0 0 0 0 0 0 0 0 0 0 0 0 0 0 0 0 0 0 0 0 0 0 0 0 0 0 0 0 0 0 0 0 0 0 0 0 0 0 0 0 0 0 0 0 0 0 0 0 0 0 0 0 0 0 0 0 0 0 0 0 0 0 0 0 0 0 0 0 0 0 0 0 0 0 0 0 0 0 0 0 0 0 0 0 0 0 0 0 0 0 0 0 0 0 0 0 0 0 0 0 0 0 0 0 0 0 0 0 0 0 0 0 0 0 0 0 0 0 0 0 0 0 0 0 0 0 0 0 0 0 0 0 0 0 0 0 0 0 0 0 0 0 0 0 0 0 0 0 0 0 0 0 0 0 0 0 0 0 0 0 0 0 0 0 0 0 0 0 0 0 0 0 0 0 0 0 0 0 0 0 0 0 0 0 0 0 0 0 0 0 0 0 0 0 0 0 0 0 0 0 0 0 0 0 0 0 0 0 0 0 0 0 0 0 0 0 0 0 0 0 0 0 0 0 0 0 0 0 0 0 0 0 0 0 0 0 0 0 0 0 0 0 0 0 0 0 0 0 0 0 0 0 0 0 0 0 0 0 0 0 0 0 0 0 0 0 0 0 0 0 0 0 0 0 0 0 0 0 0 0 0 0 0 0 0 0 0 0 0 0 0 0 0 0 0 0 0 0 0 0 0 0 0 0 0 0 0 0 0 0 0 0 0 0 0 0 0 0 0 0 0 0 0 0 0 0 0 0 0 0 0 0 0 0 0 0 0 0 0 0 0 0 0 0 0 0 0 0 0 0 0 0 0 0 0 0 0 0 0 0 0 0 0 0 0 0 0 0 0 0 0 0 0 0 0 0 0 0 0 0 0 0 0 0 0 0 0 0 0 0 0 0 0 0 0 0 0 0 0 0 0 0 0 0 0 0 0 0 0 0 0 0 0 0 0 0 0 0 0 0 0 0 0 0 0 0 0 0 0 0 0 0 0 0 0 0 0 0 0 0 0 0 0 0 0 0 0 0 0 0 0 0 0 0 0 0 0 0 0 0 0 0 0 0 0 0 0 0 0 0 0 0 0 0 0 0 0 0 0 0 0 0 0 0 0 0 0 0 0 0 0 0 0 0 0 0 0 0 0 0 0 0 0 0 0 0 0 0 0 0 0 0 0 0 0 0 0 0 0 0 0 0 0 0 0 0 0 0 0 0 0 0 0 0 0 0 0 0 0 0 0 0 0 0 0 0 0 0 0 0 0 0 0 0 0 0 0 0 0 0 0 0 0 0 0 0 0 0 0 0 0 0 0 0 0 0 0 0 0 0 0 0 0 0 0 0 0 0 0 0 0 0 0 0 0 0 0 0 0 0 0 0 0 0 0 0 0 0 0 0 0 0 0 0 0 0 0 0 0 0 0 0 0 0 0 0 0 0 0 0 0 0 0 0 0 0 0 0 0 0 0 0 0 0 0 0 0 0 0 0 0 0 0 0 0 0 0 0 0 0 0 0 0 0 0 0 0 0 0 0 0 0 0 0 0 0 0 0 0 0 0 0 0 0 0 0 0 0 0 0 0 0 0 0 0 0 0 0 0 0 0 0 0 0 0 0 0 0 0 0 0 0 0 0 0 0 0 0 0 0 0 0 0 0 0 0 0 0 0 0 0 0 0 0 0 0 0 0 0 0 0 0 0 0 0 0 0 0 0 0 0 0 0 0 0 0 0 0 0 0 0 0 0 0 0 0 0 0 0 0 0 0 0 0 0 0 0 0 0 0 0 0 0 0 0 0 0 0 0 0 0 0 0 0 0 0 0 0 0 0 0 0 0 0 0 0 0 0 0 0 0 0 0 0 0 0 0 0 0 0 0 0 0 0 0 0 0 0 0 0 0 0 0 0 0 0 0 0 0 0 0 0 0 0 0 0 0 0 0 0 0 0 0 0 0 0 0 0 0 0 0 0 0 0 0 0 0 0 0 0 0 0 0 0 0 0 0 0 0 0 0 0 0 0 0 0 0 0 0 0 0 0 0 0 0 0 0 0 0 0 0 0 0 0 0 0 0 0 0 0 0 0 0 0 0 0 0 0 0 0 0 0 0 0 0 0 0 0 0 0 0 0 0 0 0 0 0 0 0 0 0 0 0 0 0 0 0 0 0 0 0 0 0 0 0 0 0 0 0 0 0 0 0 0 0 0 0 0 0 0 0 0 0 0 0 0 0 0 0 0 0 0 0 0 0 0 0 0 0 0 0 0 0 0 0 0 0 0 0 0 0 0 0 0 0 0 0 0 0 0 0 0 0 0 0 0 0 0 0 0 0 0 0 0 0 0 0 0 0 0 0 0 0 0 0 0 0 0 0 0 0 0 0 0 0 0 0 0 0 0 0 0 0 0 0 0 0 0 0 0 0 0 0 0 0 0 0 0 0 0 0 0 0 0 0 0 0 0 0 0 0 0 0 0 0 0 0 0 0 0 0 0 0 0 0 0 0 0 0 0 0 0 0 0 0 0 0 0 0 0 0 0 0 0 0 0 0 0 0 0 0 0 0 0 0 0 0 0 0 0 0 0 0 0 0 0 0 0 0 0 0 0 0 0 0 0 0 0 0 0 0 0 0 0 0 0 0 0 0 0 0 0 0 0 0 0 0 0 0 0 0 0 0 0 0 0 0 0 0 0 0 0 0 0 0 0 0 0 0 0 0 0 0 0 0 0 0 0 0 0 0 0 0 0 0 0 0 0 0 0 0 0 0 0 0 0 0 0 0 0 0 0 0 0 0 0 0 0 0 0 0 0 0 0 0 0 0 0 0 0 0 0 0 0 0 0 0 0 0 0 0 0 0 0 0 0 0 0 0 0 0 0 0 0 0 0 0 0 0 0 0 0 0 0 0 0 0 0 0 0 0 0 0 0 0 0 0 0 0 0 0 0 0 0 0 0 0 0 0 0 0 0 0 0 0 0 0 0 0 0 0 0 0 0 0 0 0 0 0 0 0 0 0 0 0 0 0 0 0 0 0 0 0 0 0 0 0 0 0 0 0 0 0 0 0 0 0 0 0 0 0 0 0 0 0 0 0 0 0 0 0 0 0 0 0 0 0 0 0 0 0 0 0 0 0 0 0 0 0 0 0 0 0 0 0 0 0 0 0 0 0 0 0 0 0 0 0 0 0 0 0 0 0 0 0 0 0 0 0 0 0 0 0 0 0 0 0 0 0 0 0 0 0 0 0 0 0 0 0 0 0 0 0 0 0 0 0 0 0 0 0 0 0 0 0 0 0 0 0 0 0 0 0 0 0 0 0 0 0 0 0 0 0 0 0 0 0 0 0 0 0 0 0 0 0 0 0 0 0 0 0 0 0 0 0 0 0 0 0 0 0 0 0 0 0 0 0 0 0 0 0 0 0 0 0 0 0 0 0 0 0 0 0 0 0 0 0 0 0 0 0 0 0 0 0 0 0 0 0 0 0 0 0 0 0 0 0 0 0 0 0 0 0 0 0 0 0 0 0 0 0 0 0 0 0 0 0 0 0 0 0 0 0 0 0 0 0 0 0 0 0 0 0 0 0 0 0 0 0 0 0 0 0 0 0 0 0 0 0 0 0 0 0 0 0 0 0 0 0 0 0 0 0 0 0 0 0 0 0 0 0 0 0 0 0 0 0 0 0 0 0 0 0 0 0 0 0 0 0 0 0 0 0 0 0 0 0 0 0 0 0 0 0 0 0 0 0 0 0 0 0 0 0 0 0 0 0 0 0 0 0 0 0 0 0 0 0 0 0 0 0 0 0 0 0 0 0 0 0 0 0 0 0 0 0 0 0 0 0 0 0 0 0 0 0 0 0 0 0 0 0 0 0 0 0 0 0 0 0 0 0 0 0 0 0 0 0 0 0 0 0 0 0 0 0 0 0 0 0 0 0 0 0 0 0 0 0 0 0 0 0 0 0 0 0 0 0 0 0 0 0 0 0 0 0 0 0 0 0 0 0 0 0 0 0 0 0 0 0 0 0 0 0 0 0 0 0 0 0 0 0 0 0 0 0 0 0 0 0 0 0 0 0 0 0 0 0 0 0 0 0 0 0 0 0 0 0 0 0 0 0 0 0 0 0 0 0 0 0 0 0 0 0 0 0 0 0 0 0 0 0 0 0 0 0 0 0 0 0 0 0 0 0 0 0 0 0 0 0 0 0 0 0 0 0 0 0 0 0 0 0 0 0 0 0 0 0 0 0 0 0 0 0 0 0 0 0 0 0 0 0 0 0 0 0 0 0 0 0 0 0 0 0 0 0 0 0 0 0 0 0 0 0 0 0 0 0 0 0 0 0 0 0 0 0 0 0 0 0 0 0 0 0 0 0 0 0 0 0 0 0 0 0 0 0 0 0 0 0 0 0 0 0 0 0 0 0 0 0 0 0 0 0 0 0 0 0 0 0 0 0 0 0 0 0 0 0 0 0 0 0 0 0 0 0 0 0 0 0 0 0 0 0 0 0 0 0 0 0 0 0 0 0 0 0 0 0 0 0 0 0 0 0 0 0 0 0 0 0 0 0 0 0 0 0 0 0 0 0 0 0 0 0 0 0 0 0 0 0 0 0 0 0 0 0 0 0 0 0 0 0 0 0 0 0 0 0 0 0 0 0 0 0 0 0 0 0 0 0 0 0 0 0 0 0 0 0 0 0 0 0 0 0 0 0 0 0 0 0 0 0 0 0 0 0 0 0 0 0 0 0 0 0 0 0 0 0 0 0 0 0 0 0 0 0 0 0 0 0 0 0 0 0 0 0 0 0 0 0 0 0 0 0 0 0 0 0 0 0 0 0 0 0 0 0 0 0 0 0 0 0 0 0 0 0 0 0 0 0 0 0 0 0 0 0 0 0 0 0 0 0 0 0 0 0 0 0 0 0 0 0 0 0 0 0 0 0 0 0 0 0 0 0 0 0 0 0 0 0 0 0 0 0 0 0 0 0 0 0 0 0 0 0 0 0 0 0 0 0 0 0 0 0 0 0 0 0 0 0 0 0 0 0 0 0 0 0 0 0 0 0 0 0 0 0 0 0 0 0 0 0 0 0 0 0 0 0 0 0 0 0 0 0 0 0 0 0 0 0 0 0 0 0 0 0 0 0 0 0 0 0 0 0 0 0 0 0 0 0 0 0 0 0 0 0 0 0 0 0 0 0 0 0 0 0 0 0 0 0 0 0 0 0 0 0 0 0 0 0 0 0 0 0 0 0 0 0 0 0 0 0 0 0 0 0 0 0 0 0 0 0 0 0 0 0 0 0 0 0 0 0 0 0 0 0 0 0 0 0 0 0 0 0 0 0 0 0 0 0 0 0 0 0 0 0 0 0 0 0 0 0 0 0 0 0 0 0 0 0 0 0 0 0 0 0 0 0 0 0 0 0 0 0 0 0 0 0 0 0 0 0 0 0 0 0 0 0 0 0 0 0 0 0 0 0 0 0 0 0 0 0 0 0 0 0 0 0 0 0 0 0 0 0 0 0 0 0 0 0 0 0 0 0 0 0 0 0 0 0 0 0 0 0 0 0 0 0 0 0 0 0 0 0 0 0 0 0 0 0 0 0 0 0 0 0 0 0 0 0 0 0 0 0 0 0 0 0 0 0 0 0 0 0 0 0 0 0 0 0 0 0 0 0 0 0 0 0 0 0 0 0 0 0 0 0 0 0 0 0 0 0 0 0 0 0 0 0 0 0 0 0 0 0 0 0 0 0 0 0 0 0 0 0 0 0 0 0 0 0 0 0 0 0 0 0 0 0 0 0 0 0 0 0 0 0 0 0 0 0 0 0 0 0 0 0 0 0 0 0 0 0 0 0 0 0 0 0 0 0 0 0 0 0 0 0 0 0 0 0 0 0 0 0 0 0 0 0 0 0 0 0 0 0 0 0 0 0 0 0 0 0 0 0 0 0 0 0 0 0 0 0 0 0 0 0 0 0 0 0 0 0 0 0 0 0 0 0 0 0 0 0 0 0 0 0 0 0 0 0 0 0 0 0 0 0 0 0 0 0 0 0 0 0 0 0 0 0 0 0 0 0 0 0 0 0 0 0 0 0 0 0 0 0 0 0 0 0 0 0 0 0 0 0 0 0 0 0 0 0 0 0 0 0 0 0 0 0 0 0 0 0 0 0 0 0 0 0 0 0 0 0 0 0 0 0 0 0 0 0 0 0 0 0 0 0 0 0 0 0 0 0 0 0 0 0 0 0 0 0 0 0 0 0 0 0 0 0 0 0 0 0 0 0 0 0 0 0 0 0 0 0 0 0 0 0 0 0 0 0 0 0 0 0 0 0 0 0 0 0 0 0 0 0 0 0 0 0 0 0 0 0 0 0 0 0 0 0 0 0 0 0 0 0 0 0 0 0 0 0 0 0 0 0 0 0 0 0 0 0 0 0 0 0 0 0 0 0 0 0 0 0 0 0 0 0 0 0 0 0 0 0 0 0 0 0 0 0 0 0 0 0 0 0 0 0 0 0 0 0 0 0 0 0 0 0 0 0 0 0 0 0 0 0 0 0 0 0 0 0 0 0 0 0 0 0 0 0 0 0 0 0 0 0 0 0 0 0 0 0 0 0 0 0 0 0 0 0 0 0 0 0 0 0 0 0 0 0 0 0 0 0 0 0 0 0 0 0 0 0 0 0 0 0 0 0 0 0 0 0 0 0 0 0 0 0 0 0 0 0 0 0 0 0 0 0 0 0 0 0 0 0 0 0 0 0 0 0 0 0 0 0 0 0 0 0 0 0 0 0 0 0 0 0 0 0 0 0 0 0 0 0 0 0 0 0 0 0 0 0 0 0 0 0 0 0 0 0 0 0 0 0 0 0 0 0 0 0 0 0 0 0 0 0 0 0 0 0 0 0 0 0 0 0 0 0 0 0 0 0 0 0 0 0 0 0 0 0 0 0 0 0 0 0 0 0 0 0 0 0 0 0 0 0 0 0 0 0 0 0 0 0 0 0 0 0 0 0 0 0 0 0 0 0 0 0 0 0 0 0 0 0 0 0 0 0 0 0 0 0 0 0 0 0 0 0 0 0 0 0 0 0 0 0 0 0 0 0 0 0 0 0 0 0 0 0 0 0 0 0 0 0 0 0 0 0 0 0 0 0 0 0 0 0 0 0 0 0 0 0 0 0 0 0 0 0 0 0 0 0 0 0 0 0 0 0 0 0 0 0 0 0 0 0 0 0 0 0 0 0 0 0 0 0 0 0 0 0 0 0 0 0 0 0 0 0 0 0 0 0 0 0 0 0 0 0 0 0 0 0 0 0 0 0 0 0 0 0 0 0 0 0 0 0 0 0 0 0 0 0 0 0 0 0 0 0 0 0 0 0 0 0 0 0 0 0 0 0 0 0 0 0 0 0 0 0 0 0 0 0 0 0 0 0 0 0 0 0 0 0 0 0 0 0 0 0 0 0 0 0 0 0 0 0 0 0 0 0 0 0 0 0 0 0 0 0 0 0 0 0 0 0 0 0 0 0 0 0 0 0 0 0 0 0 0 0 0 0 0 0 0 0 0 0 0 0 0 0 0 0 0 0 0 0 0 0 0 0 0 0 0 0 0 0 0 0 0 0 0 0 0 0 0 0 0 0 0 0 0 0 0 0 0 0 0 0 0 0 0 0 0 0 0 0 0 0 0 0 0 0 0 0 0 0 0 0 0 0 0 0 0 0 0 0 0 0 0 0 0 0 0 0 0 0 0 0 0 0 0 0 0 0 0 0 0 0 0 0 0 0 0 0 0 0 0 0 0 0 0 0 0 0 0 0 0 0 0 0 0 0 0 0 0 0 0 0 0 0 0 0 0 0 0 0 0 0 0 0 0 0 0 0 0 0 0 0 0 0 0 0 0 0 0 0 0 0 0 0 0 0 0 0 0 0 0 0 0 0 0 0 0 0 0 0 0 0 0 0 0 0 0 0 0 0 0 0 0 0 0 0 0 0 0 0 0 0 0 0 0 0 0 0 0 0 0 0 0 0 0 0 0 0 0 0 0 0 0 0 0 0 0 0 0 0 0 0 0 0 0 0 0 0 0 0 0 0 0 0 0 0 0 0 0 0 0 0 0 0 0 0 0 0 0 0 0 0 0 0 0 0 0 0 0 0 0 0 0 0 0 0 0 0 0 0 0 0 0 0 0 0 0 0 0 0 0 0 0 0 0 0 0 0 0 0 0 0 0 0 0 0 0 0 0 0 0 0 0 0 0 0 0 0 0 0 0 0 0 0 0 0 0 0 0 0 0 0 0 0 0 0 0 0 0 0 0 0 0 0 0 0 0 0 0 0 0 0 0 0 0 0 0 0 0 0 0 0 0 0 0 0 0 0 0 0 0 0 0 0 0 0 0 0 0 0 0 0 0 0 0 0 0 0 0 0 0 0 0 0 0 0 0 0 0 0 0 0 0 0 0 0 0 0 0 0 0 0 0 0 0 0 0 0 0 0 0 0 0 0 0 0 0 0 0 0 0 0 0 0 0 0 0 0 0 0 0 0 0 0 0 0 0 0 0 0 0 0 0 0 0 0 0 0 0 0 0 0 0 0 0 0 0 0 0 0 0 0 0 0 0 0 0 0 0 0 0 0 0 0 0 0 0 0 0 0 0 0 0 0 0 0 0 0 0 0 0 0 0 0 0 0 0 0 0 0 0 0 0 0 0 0 0 0 0 0 0 0 0 0 0 0 0 0 0 0 0 0 0 0 0 0 0 0 0 0 0 0 0 0 0 0 0 0 0 0 0 0 0 0 0 0 0 0 0 0 0 0 0 0 0 0 0 0 0 0 0 0 0 0 0 0 0 0 0 0 0 0 0 0 0 0 0 0 0 0 0 0 0 0 0 0 0 0 0 0 0 0 0 0 0 0 0 0 0 0 0 0 0 0 0 0 0 0 0 0 0 0 0 0 0 0 0 0 0 0 0 0 0 0 0 0 0 0 0 0 0 0 0 0 0 0 0 0 0 0 0 0 0 0 0 0 0 0 0 0 0 0 0 0 0 0 0 0 0 0 0 0 0 0 0 0 0 0 0 0 0 0 0 0 0 0 0 0 0 0 0 0 0 0 0 0 0 0 0 0 0 0 0 0 0 0 0 0 0 0 0 0 0 0 0 0 0 0 0 0 0 0 0 0 0 0 0 0 0 0 0 0 0 0 0 0 0 0 0 0 0 0 0 0 0 0 0 0 0 0 0 0 0 0 0 0 0 0 0 0 0 0 0 0 0 0 0 0 0 0 0 0 0 0 0 0 0 0 0 0 0 0 0 0 0 0 0 0 0 0 0 0 0 0 0 0 0 0 0 0 0 0 0 0 0 0 0 0 0 0 0 0 0 0 0 0 0 0 0 0 0 0 0 0 0 0 0 0 0 0 0 0 0 0 0 0 0 0 0 0 0 0 0 0 0 0 0 0 0 0 0 0 0 0 0 0 0 0 0 0 0 0 0 0 0 0 0 0 0 0 0 0 0 0 0 0 0 0 0 0 0 0 0 0 0 0 0 0 0 0 0 0 0 0 0 0 0 0 0 0 0 0 0 0 0 0 0 0 0 0 0 0 0 0 0 0 0 0 0 0 0 0 0 0 0 0 0 0 0 0 0 0 0 0 0 0 0 0 0 0 0 0 0 0 0 0 0 0 0 0 0 0 0 0 0 0 0 0 0 0 0 0 0 0 0 0 0 0 0 0 0 0 0 0 0 0 0 0 0 0 0 0 0 0 0 0 0 0 0 0 0 0 0 0 0 0 0 0 0 0 0 0 0 0 0 0 0 0 0 0 0 0 0 0 0 0 0 0 0 0 0 0 0 0 0 0 0 0 0 0 0 0 0 0 0 0 0 0 0 0 0 0 0 0 0 0 0 0 0 0 0 0 0 0 0 0 0 0 0 0 0 0 0 0 0 0 0 0 0 0 0 0 0 0 0 0 0 0 0 0 0 0 0 0 0 0 0 0 0 0 0 0 0 0 0 0 0 0 0 0 0 0 0 0 0 0 0 0 0 0 0 0 0 0 0 0 0 0 0 0 0 0 0 0 0 0 0 0 0 0 0 0 0 0 0 0 0 0 0 0 0 0 0 0 0 0 0 0 0 0 0 0 0 0 0 0 0 0 0 0 0 0 0 0 0 0 0 0 0 0 0 0 0 0 0 0 0 0 0 0 0 0 0 0 0 0 0 0 0 0 0 0 0 0 0 0 0 0 0 0 0 0 0 0 0 0 0 0 0 0 0 0 0 0 0 0 0 0 0 0 0 0 0 0 0 0 0 0 0 0 0 0 0 0 0 0 0 0 0 0 0 0 0 0 0 0 0 0 0 0 0 0 0 0 0 0 0 0 0 0 0 0 0 0 0 0 0 0 0 0 0 0 0 0 0 0 0 0 0 0 0 0 0 0 0 0 0 0 0 0 0 0 0 0 0 0 0 0 0 0 0 0 0 0 0 0 0 0 0 0 0 0 0 0 0 0 0 0 0 0 0 0 0 0 0 0 0 0 0 0 0 0 0 0 0 0 0 0 0 0 0 0 0 0 0 0 0 0 0 0 0 0 0 0 0 0 0 0 0 0 0 0 0 0 0 0 0 0 0 0 0 0 0 0 0 0 0 0 0 0 0 0 0 0 0 0 0 0 0 0 0 0 0 0 0 0 0 0 0 0 0 0 0 0 0 0 0 0 0 0 0 0 0 0 0 0 0 0 0 0 0 0 0 0 0 0 0 0 0 0 0 0 0 0 0 0 0 0 0 0 0 0 0 0 0 0 0 0 0 0 0 0 0 0 0 0 0 0 0 0 0 0 0 0 0 0 0 0 0 0 0 0 0 0 0 0 0 0 0 0 0 0 0 0 0 0 0 0 0 0 0 0 0 0 0 0 0 0 0 0 0 0 0 0 0 0 0 0 0 0 0 0 0 0 0 0 0 0 0 0 0 0 0 0 0 0 0 0 0 0 0 0 0 0 0 0 0 0 0 0 0 0 0 0 0 0 0 0 0 0 0 0 0 0 0 0 0 0 0 0 0 0 0 0 0 0 0 0 0 0 0 0 0 0 0 0 0 0 0 0 0 0 0 0 0 0 0 0 0 0 0 0 0 0 0 0 0 0 0 0 0 0 0 0 0 0 0 0 0 0 0 0 0 0 0 0 0 0 0 0 0 0 0 0 0 0 0 0 0 0 0 0 0 0 0 0 0 0 0 0 0 0 0 0 0 0 0 0 0 0 0 0 0 0 0 0 0 0 0 0 0 0 0 0 0 0 0 0 0 0 0 0 0 0 0 0 0 0 0 0 0 0 0 0 0 0 0 0 0 0 0 0 0 0 0 0 0 0 0 0 0 0 0 0 0 0 0 0 0 0 0 0 0 0 0 0 0 0 0 0 0 0 0 0 0 0 0 0 0 0 0 0 0 0 0 0 0 0 0 0 0 0 0 0 0 0 0 0 0 0 0 0 0 0 0 0 0 0 0 0 0 0 0 0 0 0 0 0 0 0 0 0 0 0 0 0 0 0 0 0 0 0 0 0 0 0 0 0 0 0 0 0 0 0 0 0 0 0 0 0 0 0 0 0 0 0 0 0 0 0 0 0 0 0 0 0 0 0 0 0 0 0 0 0 0 0 0 0 0 0 0 0 0 0 0 0 0 0 0 0 0 0 0 0 0 0 0 0 0 0 0 0 0 0 0 0 0 0 0 0 0 0 0 0 0 0 0 0 0 0 0 0 0 0 0 0 0 0 0 0 0 0 0 0 0 0 0 0 0 0 0 0 0 0 0 0 0 0 0 0 0 0 0 0 0 0 0 0 0 0 0 0 0 0 0 0 0 0 0 0 0 0 0 0 0 0 0 0 0 0 0 0 0 0 0 0 0 0 0 0 0 0 0 0 0 0 0 0 0 0 0 0 0 0 0 0 0 0 0 0 0 0 0 0 0 0 0 0 0 0 0 0 0 0 0 0 0 0 0 0 0 0 0 0 0 0 0 0 0 0 0 0 0 0 0 0 0 0 0 0 0 0 0 0 0 0 0 0 0 0 0 0 0 0 0 0 0 0 0 0 0 0 0 0 0 0 0 0 0 0 0 0 0 0 0 0 0 0 0 0 0 0 0 0 0 0 0 0 0 0 0 0 0 0 0 0 0 0 0 0 0 0 0 0 0 0 0 0 0 0 0 0 0 0 0 0 0 0 0 0 0 0 0 0 0 0 0 0 0 0 0 0 0 0 0 0 0 0 0 0 0 0 0 0 0 0 0 0 0 0 0 0 0 0 0 0 0 0 0 0 0 0 0 0 0 0 0 0 0 0 0 0 0 0 0 0 0 0 0 0 0 0 0 0 0 0 0 0 0 0 0 0 0 0 0 0 0 0 0 0 0 0 0 0 0 0 0 0 0 0 0 0 0 0 0 0 0 0 0 0 0 0 0 0 0 0 0 0 0 0 0 0 0 0 0 0 0 0 0 0 0 0 0 0 0 0 0 0 0 0 0 0 0 0 0 0 0 0 0 0 0 0 0 0 0 0 0 0 0 0 0 0 0 0 0 0 0 0 0 0 0 0 0 0 0 0 0 0 0 0 0 0 0 0 0 0 0 0 0 0 0 0 0 0 0 0 0 0 0 0 0 0 0 0 0 0 0 0 0 0 0 0 0 0 0 0 0 0 0 0 0 0 0 0 0 0 0 0 0 0 0 0 0 0 0 0 0 0 0 0 0 0 0 0 0 0 0 0 0 0 0 0 0 0 0 0 0 0 0 0 0 0 0 0 0 0 0 0 0 0 0 0 0 0 0 0 0 0 0 0 0 0 0 0 0 0 0 0 0 0 0 0 0 0 0 0 0 0 0 0 0 0 0 0 0 0 0 0 0 0 0 0 0 0 0 0 0 0 0 0 0 0 0 0 0 0 0 0 0 0 0 0 0 0 0 0 0 0 0 0 0 0 0 0 0 0 0 0 0 0 0 0 0 0 0 0 0 0 0 0 0 0 0 0 0 0 0 0 0 0 0 0 0 0 0 0 0 0 0 0 0 0 0 0 0 0 0 0 0 0 0 0 0 0 0 0 0 0 0 0 0 0 0 0 0 0 0 0 0 0 0 0 0 0 0 0 0 0 0 0 0 0 0 0 0 0 0 0 0 0 0 0 0 0 0 0 0 0 0 0 0 0 0 0 0 0 0 0 0 0 0 0 0 0 0 0 0 0 0 0 0 0 0 0 0 0 0 0 0 0 0 0 0 0 0 0 0 0 0 0 0 0 0 0 0 0 0 0 0 0 0 0 0 0 0 0 0 0 0 0 0 0 0 0 0 0 0 0 0 0 0 0 0 0 0 0 0 0 0 0 0 0 0 0 0 0 0 0 0 0 0 0 0 0 0 0 0 0 0 0 0 0 0 0 0 0 0 0 0 0 0 0 0 0 0 0 0 0 0 0 0 0 0 0 0 0 0 0 0 0 0 0 0 0 0 0 0 0 0 0 0 0 0 0 0 0 0 0 0 0 0 0 0 0 0 0 0 0 0 0 0 0 0 0 0 0 0 0 0 0 0 0 0 0 0 0 0 0 0 0 0 0 0 0 0 0 0 0 0 0 0 0 0 0 0 0 0 0 0 0 0 0 0 0 0 0 0 0 0 0 0 0 0 0 0 0 0 0 0 0 0 0 0 0 0 0 0 0 0 0 0 0 0 0 0 0 0 0 0 0 0 0 0 0 0 0 0 0 0 0 0 0 0 0 0 0 0 0 0 0 0 0 0 0 0 0 0 0 0 0 0 0 0 0 0 0 0 0 0 0 0 0 0 0 0 0 0 0 0 0 0 0 0 0 0 0 0 0 0 0 0 0 0 0 0 0 0 0 0 0 0 0 0 0 0 0 0 0 0 0 0 0 0 0 0 0 0 0 0 0 0 0 0 0 0 0 0 0 0 0 0 0 0 0 0 0 0 0 0 0 0 0 0 0 0 0 0 0 0 0 0 0 0 0 0 0 0 0 0 0 0 0 0 0 0 0 0 0 0 0 0 0 0 0 0 0 0 0 0 0 0 0 0 0 0 0 0 0 0 0 0 0 0 0 0 0 0 0 0 0 0 0 0 0 0 0 0 0 0 0 0 0 0 0 0 0 0 0 0 0 0 0 0 0 0 0 0 0 0 0 0 0 0 0 0 0 0 0 0 0 0 0 0 0 0 0 0 0 0 0 0 0 0 0 0 0 0 0 0 0 0 0 0 0 0 0 0 0 0 0 0 0 0 0 0 0 0 0 0 0 0 0 0 0 0 0 0 0 0 0 0 0 0 0 0 0 0 0 0 0 0 0 0 0 0 0 0 0 0 0 0 0 0 0 0 0 0 0 0 0 0 0 0 0 0 0 0 0 0 0 0 0 0 0 0 0 0 0 0 0 0 0 0 0 0 0 0 0 0 0 0 0 0 0 0 0 0 0 0 0 0 0 0 0 0 0 0 0 0 0 0 0 0 0 0 0 0 0 0 0 0 0 0 0 0 0 0 0 0 0 0 0 0 0 0 0 0 0 0 0 0 0 0 0 0 0 0 0 0 0 0 0 0 0 0 0 0 0 0 0 0 0 0 0 0 0 0 0 0 0 0 0 0 0 0 0 0 0 0 0 0 0 0 0 0 0 0 0 0 0 0 0 0 0 0 0 0 0 0 0 0 0 0 0 0 0 0 0 0 0 0 0 0 0 0 0 0 0 0 0 0 0 0 0 0 0 0 0 0 0 0 0 0 0 0 0 0 0 0 0 0 0 0 0 0 0 0 0 0 0 0 0 0 0 0 0 0 0 0 0 0 0 0 0 0 0 0 0 0 0 0 0 0 0 0 0 0 0 0 0 0 0 0 0 0 0 0 0 0 0 0 0 0 0 0 0 0 0 0 0 0 0 0 0 0 0 0 0 0 0 0 0 0 0 0 0 0 0 0 0 0 0 0 0 0 0 0 0 0 0 0 0 0 0 0 0 0 0 0 0 0 0 0 0 0 0 0 0 0 0 0 0 0 0 0 0 0 0 0 0 0 0 0 0 0 0 0 0 0 0 0 0 0 0 0 0 0 0 0 0 0 0 0 0 0 0 0 0 0 0 0 0 0 0 0 0 0 0 0 0 0 0 0 0 0 0 0 0 0 0 0 0 0 0 0 0 0 0 0 0 0 0 0 0 0 0 0 0 0 0 0 0 0 0 0 0 0 0 0 0 0 0 0 0 0 0 0 0 0 0 0 0 0 0 0 0 0 0 0 0 0 0 0 0 0 0 0 0 0 0 0 0 0 0 0 0 0 0 0 0 0 0 0 0 0 0 0 0 0 0 0 0 0 0 0 0 0 0 0 0 0 0 0 0 0 0 0 0 0 0 0 0 0 0 0 0 0 0 0 0 0 0 0 0 0 0 0 0 0 0 0 0 0 0 0 0 0 0 0 0 0 0 0 0 0 0 0 0 0 0 0 0 0 0 0 0 0 0 0 0 0 0 0 0 0 0 0 0 0 0 0 0 0 0 0 0 0 0 0 0 0 0 0 0 0 0 0 0 0 0 0 0 0 0 0 0 0 0 0 0 0 0 0 0 0 0 0 0 0 0 0 0 0 0 0 0 0 0 0 0 0 0 0 0 0 0 0 0 0 0 0 0 0 0 0 0 0 0 0 0 0 0 0 0 0 0 0 0 0 0 0 0 0 0 0 0 0 0 0 0 0 0 0 0 0 0 0 0 0 0 0 0 0 0 0 0 0 0 0 0 0 0 0 0 0 0 0 0 0 0 0 0 0 0 0 0 0 0 0 0 0 0 0 0 0 0 0 0 0 0 0 0 0 0 0 0 0 0 0 0 0 0 0 0 0 0 0 0 0 0 0 0 0 0 0 0 0 0 0 0 0 0 0 0 0 0 0 0 0 0 0 0 0 0 0 0 0 0 0 0 0 0 0 0 0 0 0 0 0 0 0 0 0 0 0 0 0 0 0 0 0 0 0 0 0 0 0 0 0 0 0 0 0 0 0 0 0 0 0 0 0 0 0 0 0 0 0 0 0 0 0 0 0 0 0 0 0 0 0 0 0 0 0 0 0 0 0 0 0 0 0 0 0 0 0 0 0 0 0 0 0 0 0 0 0 0 0 0 0 0 0 0 0 0 0 0 0 0 0 0 0 0 0 0 0 0 0 0 0 0 0 0 0 0 0 0 0 0 0 0 0 0 0 0 0 0 0 0 0 0 0 0 0 0 0 0 0 0 0 0 0 0 0 0 0 0 0 0 0 0 0 0 0 0 0 0 0 0 0 0 0 0 0 0 0 0 0 0 0 0 0 0 0 0 0 0 0 0 0 0 0 0 0 0 0 0 0 0 0 0 0 0 0 0 0 0 0 0 0 0 0 0 0 0 0 0 0 0 0 0 0 0 0 0 0 0 0 0 0 0 0 0 0 0 0 0 0 0 0 0 0 0 0 0 0 0 0 0 0 0 0 0 0 0 0 0 0 0 0 0 0 0 0 0 0 0 0 0 0 0 0 0 0 0 0 0 0 0 0 0 0 0 0 0 0 0 0 0 0 0 0 0 0 0 0 0 0 0 0 0 0 0 0 0 0 0 0 0 0 0 0 0 0 0 0 0 0 0 0 0 0 0 0 0 0 0 0 0 0 0 0 0 0 0 0 0 0 0 0 0 0 0 0 0 0 0 0 0 0 0 0 0 0 0 0 0 0 0 0 0 0 0 0 0 0 0 0 0 0 0 0 0 0 0 0 0 0 0 0 0 0 0 0 0 0 0 0 0 0 0 0 0 0 0 0 0 0 0 0 0 0 0 0 0 0 0 0 0 0 0 0 0 0 0 0 0 0 0 0 0 0 0 0 0 0 0 0 0 0 0 0 0 0 0 0 0 0 0 0 0 0 0 0 0 0 0 0 0 0 0 0 0 0 0 0 0 0 0 0 0 0 0 0 0 0 0 0 0 0 0 0 0 0 0 0 0 0 0 0 0 0 0 0 0 0 0 0 0 0 0 0 0 0 0 0 0 0 0 0 0 0 0 0 0 0 0 0 0 0 0 0 0 0 0 0 0 0 0 0 0 0 0 0 0 0 0 0 0 0 0 0 0 0 0 0 0 0 0 0 0 0 0 0 0 0 0 0 0 0 0 0 0 0 0 0 0 0 0 0 0 0 0 0 0 0 0 0 0 0 0 0 0 0 0 0 0 0 0 0 0 0 0 0 0 0 0 0 0 0 0 0 0 0 0 0 0 0 0 0 0 0 0 0 0 0 0 0 0 0 0 0 0 0 0 0 0 0 0 0 0 0 0 0 0 0 0 0 0 0 0 0 0 0 0 0 0 0 0 0 0 0 0 0 0 0 0 0 0 0 0 0 0 0 0 0 0 0 0 0 0 0 0 0 0 0 0 0 0 0 0 0 0 0 0 0 0 0 0 0 0 0 0 0 0 0 0 0 0 0 0 0 0 0 0 0 0 0 0 0 0 0 0 0 0 0 0 0 0 0 0 0 0 0 0 0 0 0 0 0 0 0 0 0 0 0 0 0 0 0 0 0 0 0 0 0 0 0 0 0 0 0 0 0 0 0 0 0 0 0 0 0 0 0 0 0 0 0 0 0 0 0 0 0 0 0 0 0 0 0 0 0 0 0 0 0 0 0 0 0 0 0 0 0 0 0 0 0 0 0 0 0 0 0 0 0 0 0 0 0 0 0 0 0 0 0 0 0 0 0 0 0 0 0 0 0 0 0 0 0 0 0 0 0 0 0 0 0 0 0 0 0 0 0 0 0 0 0 0 0 0 0 0 0 0 0 0 0 0 0 0 0 0 0 0 0 0 0 0 0 0 0 0 0 0 0 0 0 0 0 0 0 0 0 0 0 0 0 0 0 0 0 0 0 0 0 0 0 0 0 0 0 0 0 0 0 0 0 0 0 0 0 0 0 0 0 0 0 0 0 0 0 0 0 0 0 0 0 0 0 0 0 0 0 0 0 0 0 0 0 0 0 0 0 0 0 0 0 0 0 0 0 0 0 0 0 0 0 0 0 0 0 0 0 0 0 0 0 0 0 0 0 0 0 0 0 0 0 0 0 0 0 0 0 0 0 0 0 0 0 0 0 0 0 0 0 0 0 0 0 0 0 0 0 0 0 0 0 0 0 0 0 0 0 0 0 0 0 0 0 0 0 0 0 0 0 0 0 0 0 0 0 0 0 0 0 0 0 0 0 0 0 0 0 0 0 0 0 0 0 0 0 0 0 0 0 0 0 0 0 0 0 0 0 0 0 0 0 0 0 0 0 0 0 0 0 0 0 0 0 0 0 0 0 0 0 0 0 0 0 0 0 0 0 0 0 0 0 0 0 0 0 0 0 0 0 0 0 0 0 0 0 0 0 0 0 0 0 0 0 0 0 0 0 0 0 0 0 0 0 0 0 0 0 0 0 0 0 0 0 0 0 0 0 0 0 0 0 0 0 0 0 0 0 0 0 0 0 0 0 0 0 0 0 0 0 0 0 0 0 0 0 0 0 0 0 0 0 0 0 0 0 0 0 0 0 0 0 0 0 0 0 0 0 0 0 0 0 0 0 0 0 0 0 0 0 0 0 0 0 0 0 0 0 0 0 0 0 0 0 0 0 0 0 0 0 0 0 0 0 0 0 0 0 0 0 0 0 0 0 0 0 0 0 0 0 0 0 0 0 0 0 0 0 0 0 0 0 0 0 0 0 0 0 0 0 0 0 0 0 0 0 0 0 0 0 0 0 0 0 0 0 0 0 0 0 0 0 0 0 0 0 0 0 0 0 0 0 0 0 0 0 0 0 0 0 0 0 0 0 0 0 0 0 0 0 0 0 0 0 0 0 0 0 0 0 0 0 0 0 0 0 0 0 0 0 0 0 0 0 0 0 0 0 0 0 0 0 0 0 0 0 0 0 0 0 0 0 0 0 0 0 0 0 0 0 0 0 0 0 0 0 0 0 0 0 0 0 0 0 0 0 0 0 0 0 0 0 0 0 0 0 0 0 0 0 0 0 0 0 0 0 0 0 0 0 0 0 0 0 0 0 0 0 0 0 0 0 0 0 0 0 0 0 0 0 0 0 0 0 0 0 0 0 0 0 0 0 0 0 0 0 0 0 0 0 0 0 0 0 0 0 0 0 0 0 0 0 0 0 0 0 0 0 0 0 0 0 0 0 0 0 0 0 0 0 0 0 0 0 0 0 0 0 0 0 0 0 0 0 0 0 0 0 0 0 0 0 0 0 0 0 0 0 0 0 0 0 0 0 0 0 0 0 0 0 0 0 0 0 0 0 0 0 0 0 0 0 0 0 0 0 0 0 0 0 0 0 0 0 0 0 0 0 0 0 0 0 0 0 0 0 0 0 0 0 0 0 0 0 0 0 0 0 0 0 0 0 0 0 0 0 0 0 0 0 0 0 0 0 0 0 0 0 0 0 0 0 0 0 0 0 0 0 0 0 0 0 0 0 0 0 0 0 0 0 0 0 0 0 0 0 0 0 0 0 0 0 0 0 0 0 0 0 0 0 0 0 0 0 0 0 0 0 0 0 0 0 0 0 0 0 0 0 0 0 0 0 0 0 0 0 0 0 0 0 0 0 0 0 0 0 0 0 0 0 0 0 0 0 0 0 0 0 0 0 0 0 0 0 0 0 0 0 0 0 0 0 0 0 0 0 0 0 0 0 0 0 0 0 0 0 0 0 0 0 0 0 0 0 0 0 0 0 0 0 0 0 0 0 0 0 0 0 0 0 0 0 0 0 0 0 0 0 0 0 0 0 0 0 0 0 0 0 0 0 0 0 0 0 0 0 0 0 0 0 0 0 0 0 0 0 0 0 0 0 0 0 0 0 0 0 0 0 0 0 0 0 0 0 0 0 0 0 0 0 0 0 0 0 0 0 0 0 0 0 0 0 0 0 0 0 0 0 0 0 0 0 0 0 0 0 0 0 0 0 0 0 0 0 0 0 0 0 0 0 0 0 0 0 0 0 0 0 0 0 0 0 0 0 0 0 0 0 0 0 0 0 0 0 0 0 0 0 0 0 0 0 0 0 0 0 0 0 0 0 0 0 0 0 0 0 0 0 0 0 0 0 0 0 0 0 0 0 0 0 0 0 0 0 0 0 0 0 0 0 0 0 0 0 0 0 0 0 0 0 0 0 0 0 0 0 0 0 0 0 0 0 0 0 0 0 0 0 0 0 0 0 0 0 0 0 0 0 0 0 0 0 0 0 0 0 0 0 0 0 0 0 0 0 0 0 0 0 0 0 0 0 0 0 0 0 0 0 0 0 0 0 0 0 0 0 0 0 0 0 0 0 0 0 0 0 0 0 0 0 0 0 0 0 0 0 0 0 0 0 0 0 0 0 0 0 0 0 0 0 0 0 0 0 0 0 0 0 0 0 0 0 0 0 0 0 0 0 0 0 0 0 0 0 0 0 0 0 0 0 0 0 0 0 0 0 0 0 0 0 0 0 0 0 0 0 0 0 0 0 0 0 0 0 0 0 0 0 0 0 0 0 0 0 0 0 0 0 0 0 0 0 0 0 0 0 0 0 0 0 0 0 0 0 0 0 0 0 0 0 0 0 0 0 0 0 0 0 0 0 0 0 0 0 0 0 0 0 0 0 0 0 0 0 0 0 0 0 0 0 0 0 0 0 0 0 0 0 0 0 0 0 0 0 0 0 0 0 0 0 0 0 0 0 0 0 0 0 0 0 0 0 0 0 0 0 0 0 0 0 0 0 0 0 0 0 0 0 0 0 0 0 0 0 0 0 0 0 0 0 0 0 0 0 0 0 0 0 0 0 0 0 0 0 0 0 0 0 0 0 0 0 0 0 0 0 0 0 0 0 0 0 0 0 0 0 0 0 0 0 0 0 0 0 0 0 0 0 0 0 0 0 0 0 0 0 0 0 0 0 0 0 0 0 0 0 0 0 0 0 0 0 0 0 0 0 0 0 0 0 0 0 0 0 0 0 0 0 0 0 0 0 0 0 0 0 0 0 0 0 0 0 0 0 0 0 0 0 0 0 0 0 0 0 0 0 0 0 0 0 0 0 0 0 0 0 0 0 0 0 0 0 0 0 0 0 0 0 0 0 0 0 0 0 0 0 0 0 0 0 0 0 0 0 0 0 0 0 0 0 0 0 0 0 0 0 0 0 0 0 0 0 0 0 0 0 0 0 0 0 0 0 0 0 0 0 0 0 0 0 0 0 0 0 0 0 0 0 0 0 0 0 0 0 0 0 0 0 0 0 0 0 0 0 0 0 0 0 0 0 0 0 0 0 0 0 0 0 0 0 0 0 0 0 0 0 0 0 0 0 0 0 0 0 0 0 0 0 0 0 0 0 0 0 0 0 0 0 0 0 0 0 0 0 0 0 0 0 0 0 0 0 0 0 0 0 0 0 0 0 0 0 0 0 0 0 0 0 0 0 0 0 0 0 0 0 0 0 0 0 0 0 0 0 0 0 0 0 0 0 0 0 0 0 0 0 0 0 0 0 0 0 0 0 0 0 0 0 0 0 0 0 0 0 0 0 0 0 0 0 0 0 0 0 0 0 0 0 0 0 0 0 0 0 0 0 0 0 0 0 0 0 0 0 0 0 0 0 0 0 0 0 0 0 0 0 0 0 0 0 0 0 0 0 0 0 0 0 0 0 0 0 0 0 0 0 0 0 0 0 0 0 0 0 0 0 0 0 0 0 0 0 0 0 0 0 0 0 0 0 0 0 0 0 0 0 0 0 0 0 0 0 0 0 0 0 0 0 0 0 0 0 0 0 0 0 0 0 0 0 0 0 0 0 0 0 0 0 0 0 0 0 0 0 0 0 0 0 0 0 0 0 0 0 0 0 0 0 0 0 0 0 0 0 0 0 0 0 0 0 0 0 0 0 0 0 0 0 0 0 0 0 0 0 0 0 0 0 0 0 0 0 0 0 0 0 0 0 0 0 0 0 0 0 0 0 0 0 0 0 0 0 0 0 0 0 0 0 0 0 0 0 0 0 0 0 0 0 0 0 0 0 0 0 0 0 0 0 0 0 0 0 0 0 0 0 0 0 0 0 0 0 0 0 0 0 0 0 0 0 0 0 0 0 0 0 0 0 0 0 0 0 0 0 0 0 0 0 0 0 0 0 0 0 0 0 0 0 0 0 0 0 0 0 0 0 0 0 0 0 0 0 0 0 0 0 0 0 0 0 0 0 0 0 0 0 0 0 0 0 0 0 0 0 0 0 0 0 0 0 0 0 0 0 0 0 0 0 0 0 0 0 0 0 0 0 0 0 0 0 0 0 0 0 0 0 0 0 0 0 0 0 0 0 0 0 0 0 0 0 0 0 0 0 0 0 0 0 0 0 0 0 0 0 0 0 0 0 0 0 0 0 0 0 0 0 0 0 0 0 0 0 0 0 0 0 0 0 0 0 0 0 0 0 0 0 0 0 0 0 0 0 0 0 0 0 0 0 0 0 0 0 0 0 0 0 0 0 0 0 0 0 0 0 0 0 0 0 0 0 0 0 0 0 0 0 0 0 0 0 0 0 0 0 0 0 0 0 0 0 0 0 0 0 0 0 0 0 0 0 0 0 0 0 0 0 0 0 0 0 0 0 0 0 0 0 0 0 0 0 0 0 0 0 0 0 0 0 0 0 0 0 0 0 0 0 0 0 0 0 0 0 0 0 0 0 0 0 0 0 0 0 0 0 0 0 0 0 0 0 0 0 0 0 0 0 0 0 0 0 0 0 0 0 0 0 0 0 0 0 0 0 0 0 0 0 0 0 0 0 0 0 0 0 0 0 0 0 0 0 0 0 0 0 0 0 0 0 0 0 0 0 0 0 0 0 0 0 0 0 0 0 0 0 0 0 0 0 0 0 0 0 0 0 0 0 0 0 0 0 0 0 0 0 0 0 0 0 0 0 0 0 0 0 0 0 0 0 0 0 0 0 0 0 0 0 0 0 0 0 0 0 0 0 0 0 0 0 0 0 0 0 0 0 0 0 0 0 0 0 0 0 0 0 0 0 0 0 0 0 0 0 0 0 0 0 0 0 0 0 0 0 0 0 0 0 0 0 0 0 0 0 0 0 0 0 0 0 0 0 0 0 0 0 0 0 0 0 0 0 0 0 0 0 0 0 0 0 0 0 0 0 0 0 0 0 0 0 0 0 0 0 0 0 0 0 0 0 0 0 0 0 0 0 0 0 0 0 0 0 0 0 0 0 0 0 0 0 0 0 0 0 0 0 0 0 0 0 0 0 0 0 0 0 0 0 0 0 0 0 0 0 0 0 0 0 0 0 0 0 0 0 0 0 0 0 0 0 0 0 0 0 0 0 0 0 0 0 0 0 0 0 0 0 0 0 0 0 0 0 0 0 0 0 0 0 0 0 0 0 0 0 0 0 0 0 0 0 0 0 0 0 0 0 0 0 0 0 0 0 0 0 0 0 0 0 0 0 0 0 0 0 0 0 0 0 0 0 0 0 0 0 0 0 0 0 0 0 0 0 0 0 0 0 0 0 0 0 0 0 0 0 0 0 0 0 0 0 0 0 0 0 0 0 0 0 0 0 0 0 0 0 0 0 0 0 0 0 0 0 0 0 0 0 0 0 0 0 0 0 0 0 0 0 0 0 0 0 0 0 0 0 0 0 0 0 0 0 0 0 0 0 0 0 0 0 0 0 0 0 0 0 0 0 0 0 0 0 0 0 0 0 0 0 0 0 0 0 0 0 0 0 0 0 0 0 0 0 0 0 0 0 0 0 0 0 0 0 0 0 0 0 0 0 0 0 0 0 0 0 0 0 0 0 0 0 0 0 0 0 0 0 0 0 0 0 0 0 0 0 0 0 0 0 0 0 0 0 0 0 0 0 0 0 0 0 0 0 0 0 0 0 0 0 0 0 0 0 0 0 0 0 0 0 0 0 0 0 0 0 0 0 0 0 0 0 0 0 0 0 0 0 0 0 0 0 0 0 0 0 0 0 0 0 0 0 0 0 0 0 0 0 0 0 0 0 0 0 0 0 0 0 0 0 0 0 0 0 0 0 0 0 0 0 0 0 0 0 0 0 0 0 0 0 0 0 0 0 0 0 0 0 0 0 0 0 0 0 0 0 0 0 0 0 0 0 0 0 0 0 0 0 0 0 0 0 0 0 0 0 0 0 0 0 0 0 0 0 0 0 0 0 0 0 0 0 0 0 0 0 0 0 0 0 0 0 0 0 0 0 0 0 0 0 0 0 0 0 0 0 0 0 0 0 0 0 0 0 0 0 0 0 0 0 0 0 0 0 0 0 0 0 0 0 0 0 0 0 0 0 0 0 0 0 0 0 0 0 0 0 0 0 0 0 0 0 0 0 0 0 0 0 0 0 0 0 0 0 0 0 0 0 0 0 0 0 0 0 0 0 0 0 0 0 0 0 0 0 0 0 0 0 0 0 0 0 0 0 0 0 0 0 0 0 0 0 0 0 0 0 0 0 0 0 0 0 0 0 0 0 0 0 0 0 0 0 0 0 0 0 0 0 0 0 0 0 0 0 0 0 0 0 0 0 0 0 0 0 0 0 0 0 0 0 0 0 0 0 0 0 0 0 0 0 0 0 0 0 0 0 0 0 0 0 0 0 0 0 0 0 0 0 0 0 0 0 0 0 0 0 0 0 0 0 0 0 0 0 0 0 0 0 0 0 0 0 0 0 0 0 0 0 0 0 0 0 0 0 0 0 0 0 0 0 0 0 0 0 0 0 0 0 0 0 0 0 0 0 0 0 0 0 0 0 0 0 0 0 0 0 0 0 0 0 0 0 0 0 0 0 0 0 0 0 0 0 0 0 0 0 0 0 0 0 0 0 0 0 0 0 0 0 0 0 0 0 0 0 0 0 0 0 0 0 0 0 0 0 0 0 0 0 0 0 0 0 0 0 0 0 0 0 0 0 0 0 0 0 0 0 0 0 0 0 0 0 0 0 0 0 0 0 0 0 0 0 0 0 0 0 0 0 0 0 0 0 0 0 0 0 0 0 0 0 0 0 0 0 0 0 0 0 0 0 0 0 0 0 0 0 0 0 0 0 0 0 0 0 0 0 0 0 0 0 0 0 0 0 0 0 0 0 0 0 0 0 0 0 0 0 0 0 0 0 0 0 0 0 0 0 0 0 0 0 0 0 0 0 0 0 0 0 0 0 0 0 0 0 0 0 0 0 0 0 0 0 0 0 0 0 0 0 0 0 0 0 0 0 0 0 0 0 0 0 0 0 0 0 0 0 0 0 0 0 0 0 0 0 0 0 0 0 0 0 0 0 0 0 0 0 0 0 0 0 0 0 0 0 0 0 0 0 0 0 0 0 0 0 0 0 0 0 0 0 0 0 0 0 0 0 0 0 0 0 0 0 0 0 0 0 0 0 0 0 0 0 0 0 0 0 0 0 0 0 0 0 0 0 0 0 0 0 0 0 0 0 0 0 0 0 0 0 0 0 0 0 0 0 0 0 0 0 0 0 0 0 0 0 0 0 0 0 0 0 0 0 0 0 0 0 0 0 0 0 0 0 0 0 0 0 0 0 0 0 0 0 0 0 0 0 0 0 0 0 0 0 0 0 0 0 0 0 0 0 0 0 0 0 0 0 0 0 0 0 0 0 0 0 0 0 0 0 0 0 0 0 0 0 0 0 0 0 0 0 0 0 0 0 0 0 0 0 0 0 0 0 0 0 0 0 0 0 0 0 0 0 0 0 0 0 0 0 0 0 0 0 0 0 0 0 0 0 0 0 0 0 0 0 0 0 0 0 0 0 0 0 0 0 0 0 0 0 0 0 0 0 0 0 0 0 0 0 0 0 0 0 0 0 0 0 0 0 0 0 0 0 0 0 0 0 0 0 0 0 0 0 0 0 0 0 0 0 0 0 0 0 0 0 0 0 0 0 0 0 0 0 0 0 0 0 0 0 0 0 0 0 0 0 0 0 0 0 0 0 0 0 0 0 0 0 0 0 0 0 0 0 0 0 0 0 0 0 0 0 0 0 0 0 0 0 0 0 0 0 0 0 0 0 0 0 0 0 0 0 0 0 0 0 0 0 0 0 0 0 0 0 0 0 0 0 0 0 0 0 0 0 0 0 0 0 0 0 0 0 0 0 0 0 0 0 0 0 0 0 0 0 0 0 0 0 0 0 0 0 0 0 0 0 0 0 0 0 0 0 0 0 0 0 0 0 0 0 0 0 0 0 0 0 0 0 0 0 0 0 0 0 0 0 0 0 0 0 0 0 0 0 0 0 0 0 0 0 0 0 0 0 0 0 0 0 0 0 0 0 0 0 0 0 0 0 0 0 0 0 0 0 0 0 0 0 0 0 0 0 0 0 0 0 0 0 0 0 0 0 0 0 0 0 0 0 0 0 0 0 0 0 0 0 0 0 0 0 0 0 0 0 0 0 0 0 0 0 0 0 0 0 0 0 0 0 0 0 0 0 0 0 0 0 0 0 0 0 0 0 0 0 0 0 0 0 0 0 0 0 0 0 0 0 0 0 0 0 0 0 0 0 0 0 0 0 0 0 0 0 0 0 0 0 0 0 0 0 0 0 0 0 0 0 0 0 0 0 0 0 0 0 0 0 0 0 0 0 0 0 0 0 0 0 0 0 0 0 0 0 0 0 0 0 0 0 0 0 0 0 0 0 0 0 0 0 0 0 0 0 0 0 0 0 0 0 0 0 0 0 0 0 0 0 0 0 0 0 0 0 0 0 0 0 0 0 0 0 0 0 0 0 0 0 0 0 0 0 0 0 0 0 0 0 0 0 0 0 0 0 0 0 0 0 0 0 0 0 0 0 0 0 0 0 0 0 0 0 0 0 0 0 0 0 0 0 0 0 0 0 0 0 0 0 0 0 0 0 0 0 0 0 0 0 0 0 0 0 0 0 0 0 0 0 0 0 0 0 0 0 0 0 0 0 0 0 0 0 0 0 0 0 0 0 0 0 0 0 0 0 0 0 0 0 0 0 0 0 0 0 0 0 0 0 0 0 0 0 0 0 0 0 0 0 0 0 0 0 0 0 0 0 0 0 0 0 0 0 0 0 0 0 0 0 0 0 0 0 0 0 0 0 0 0 0 0 0 0 0 0 0 0 0 0 0 0 0 0 0 0 0 0 0 0 0 0 0 0 0 0 0 0 0 0 0 0 0 0 0 0 0 0 0 0 0 0 0 0 0 0 0 0 0 0 0 0 0 0 0 0 0 0 0 0 0 0 0 0 0 0 0 0 0 0 0 0 0 0 0 0 0 0 0 0 0 0 0 0 0 0 0 0 0 0 0 0 0 0 0 0 0 0 0 0 0 0 0 0 0 0 0 0 0 0 0 0 0 0 0 0 0 0 0 0 0 0 0 0 0 0 0 0 0 0 0 0 0 0 0 0 0 0 0 0 0 0 0 0 0 0 0 0 0 0 0 0 0 0 0 0 0 0 0 0 0 0 0 0 0 0 0 0 0 0 0 0 0 0 0 0 0 0 0 0 0 0 0 0 0 0 0 0 0 0 0 0 0 0 0 0 0 0 0 0 0 0 0 0 0 0 0 0 0 0 0 0 0 0 0 0 0 0 0 0 0 0 0 0 0 0 0 0 0 0 0 0 0 0 0 0 0 0 0 0 0 0 0 0 0 0 0 0 0 0 0 0 0 0 0 0 0 0 0 0 0 0 0 0 0 0 0 0 0 0 0 0 0 0 0 0 0 0 0 0 0 0 0 0 0 0 0 0 0 0 0 0 0 0 0 0 0 0 0 0 0 0 0 0 0 0 0 0 0 0 0 0 0 0 0 0 0 0 0 0 0 0 0 0 0 0 0 0 0 0 0 0 0 0 0 0 0 0 0 0 0 0 0 0 0 0 0 0 0 0 0 0 0 0 0 0 0 0 0 0 0 0 0 0 0 0 0 0 0 0 0 0 0 0 0 0 0 0 0 0 0 0 0 0 0 0 0 0 0 0 0 0 0 0 0 0 0 0 0 0 0 0 0 0 0 0 0 0 0 0 0 0 0 0 0 0 0 0 0 0 0 0 0 0 0 0 0 0 0 0 0 0 0 0 0 0 0 0 0 0 0 0 0 0 0 0 0 0 0 0 0 0 0 0 0 0 0 0 0 0 0 0 0 0 0 0 0 0 0 0 0 0 0 0 0 0 0 0 0 0 0 0 0 0 0 0 0 0 0 0 0 0 0 0 0 0 0 0 0 0 0 0 0 0 0 0 0 0 0 0 0 0 0 0 0 0 0 0 0 0 0 0 0 0 0 0 0 0 0 0 0 0 0 0 0 0 0 0 0 0 0 0 0 0 0 0 0 0 0 0 0 0 0 0 0 0 0 0 0 0 0 0 0 0 0 0 0 0 0 0 0 0 0 0 0 0 0 0 0 0 0 0 0 0 0 0 0 0 0 0 0 0 0 0 0 0 0 0 0 0 0 0 0 0 0 0 0 0 0 0 0 0 0 0 0 0 0 0 0 0 0 0 0 0 0 0 0 0 0 0 0 0 0 0 0 0 0 0 0 0 0 0 0 0 0 0 0 0 0 0 0 0 0 0 0 0 0 0 0 0 0 0 0 0 0 0 0 0 0 0 0 0 0 0 0 0 0 0 0 0 0 0 0 0 0 0 0 0 0 0 0 0 0 0 0 0 0 0 0 0 0 0 0 0 0 0 0 0 0 0 0 0 0 0 0 0 0 0 0 0 0 0 0 0 0 0 0 0 0 0 0 0 0 0 0 0 0 0 0 0 0 0 0 0 0 0 0 0 0 0 0 0 0 0 0 0 0 0 0 0 0 0 0 0 0 0 0 0 0 0 0 0 0 0 0 0 0 0 0 0 0 0 0 0 0 0 0 0 0 0 0 0 0 0 0 0 0 0 0 0 0 0 0 0 0 0 0 0 0 0 0 0 0 0 0 0 0 0 0 0 0 0 0 0 0 0 0 0 0 0 0 0 0 0 0 0 0 0 0 0 0 0 0 0 0 0 0 0 0 0 0 0 0 0 0 0 0 0 0 0 0 0 0 0 0 0 0 0 0 0 0 0 0 0 0 0 0 0 0 0 0 0 0 0 0 0 0 0 0 0 0 0 0 0 0 0 0 0 0 0 0 0 0 0 0 0 0 0 0 0 0 0 0 0 0 0 0 0 0 0 0 0 0 0 0 0 0 0 0 0 0 0 0 0 0 0 0 0 0 0 0 0 0 0 0 0 0 0 0 0 0 0 0 0 0 0 0 0 0 0 0 0 0 0 0 0 0 0 0 0 0 0 0 0 0 0 0 0 0 0 0 0 0 0 0 0 0 0 0 0 0 0 0 0 0 0 0 0 0 0 0 0 0 0 0 0 0 0 0 0 0 0 0 0 0 0 0 0 0 0 0 0 0 0 0 0 0 0 0 0 0 0 0 0 0 0 0 0 0 0 0 0 0 0 0 0 0 0 0 0 0 0 0 0 0 0 0 0 0 0 0 0 0 0 0 0 0 0 0 0 0 0 0 0 0 0 0 0 0 0 0 0 0 0 0 0 0 0 0 0 0 0 0 0 0 0 0 0 0 0 0 0 0 0 0 0 0 0 0 0 0 0 0 0 0 0 0 0 0 0 0 0 0 0 0 0 0 0 0 0 0 0 0 0 0 0 0 0 0 0 0 0 0 0 0 0 0 0 0 0 0 0 0 0 0 0 0 0 0 0 0 0 0 0 0 0 0 0 0 0 0 0 0 0 0 0 0 0 0 0 0 0 0 0 0 0 0 0 0 0 0 0 0 0 0 0 0 0 0 0 0 0 0 0 0 0 0 0 0 0 0 0 0 0 0 0 0 0 0 0 0 0 0 0 0 0 0 0 0 0 0 0 0 0 0 0 0 0 0 0 0 0 0 0 0 0 0 0 0 0 0 0 0 0 0 0 0 0 0 0 0 0 0 0 0 0 0 0 0 0 0 0 0 0 0 0 0 0 0 0 0 0 0 0 0 0 0 0 0 0 0 0 0 0 0 0 0 0 0 0 0 0 0 0 0 0 0 0 0 0 0 0 0 0 0 0 0 0 0 0 0 0 0 0 0 0 0 0 0 0 0 0 0 0 0 0 0 0 0 0 0 0 0 0 0 0 0 0 0 0 0 0 0 0 0 0 0 0 0 0 0 0 0 0 0 0 0 0 0 0 0 0 0 0 0 0 0 0 0 0 0 0 0 0 0 0 0 0 0 0 0 0 0 0 0 0 0 0 0 0 0 0 0 0 0 0 0 0 0 0 0 0 0 0 0 0 0 0 0 0 0 0 0 0 0 0 0 0 0 0 0 0 0 0 0 0 0 0 0 0 0 0 0 0 0 0 0 0 0 0 0 0 0 0 0 0 0 0 0 0 0 0 0 0 0 0 0 0 0 0 0 0 0 0 0 0 0 0 0 0 0 0 0 0 0 0 0 0 0 0 0 0 0 0 0 0 0 0 0 0 0 0 0 0 0 0 0 0 0 0 0 0 0 0 0 0 0 0 0 0 0 0 0 0 0 0 0 0 0 0 0 0 0 0 0 0 0 0 0 0 0 0 0 0 0 0 0 0 0 0 0 0 0 0 0 0 0 0 0 0 0 0 0 0 0 0 0 0 0 0 0 0 0 0 0 0 0 0 0 0 0 0 0 0 0 0 0 0 0 0 0 0 0 0 0 0 0 0 0 0 0 0 0 0 0 0 0 0 0 0 0 0 0 0 0 0 0 0 0 0 0 0 0 0 0 0 0 0 0 0 0 0 0 0 0 0 0 0 0 0 0 0 0 0 0 0 0 0 0 0 0 0 0 0 0 0 0 0 0 0 0 0 0 0 0 0 0 0 0 0 0 0 0 0 0 0 0 0 0 0 0 0 0 0 0 0 0 0 0 0 0 0 0 0 0 0 0 0 0 0 0 0 0 0 0 0 0 0 0 0 0 0 0 0 0 0 0 0 0 0 0 0 0 0 0 0 0 0 0 0 0 0 0 0 0 0 0 0 0 0 0 0 0 0 0 0 0 0 0 0 0 0 0 0 0 0 0 0 0 0 0 0 0 0 0 0 0 0 0 0 0 0 0 0 0 0 0 0 0 0 0 0 0 0 0 0 0 0 0 0 0 0 0 0 0 0 0 0 0 0 0 0 0 0 0 0 0 0 0 0 0 0 0 0 0 0 0 0 0 0 0 0 0 0 0 0 0 0 0 0 0 0 0 0 0 0 0 0 0 0 0 0 0 0 0 0 0 0 0 0 0 0 0 0 0 0 0 0 0 0 0 0 0 0 0 0 0 0 0 0 0 0 0 0 0 0 0 0 0 0 0 0 0 0 0 0 0 0 0 0 0 0 0 0 0 0 0 0 0 0 0 0 0 0 0 0 0 0 0 0 0 0 0 0 0 0 0 0 0 0 0 0 0 0 0 0 0 0 0 0 0 0 0 0 0 0 0 0 0 0 0 0 0 0 0 0 0 0 0 0 0 0 0 0 0 0 0 0 0 0 0 0 0 0 0 0 0 0 0 0 0 0 0 0 0 0 0 0 0 0 0 0 0 0 0 0 0 0 0 0 0 0 0 0 0 0 0 0 0 0 0 0 0 0 0 0 0 0 0 0 0 0 0 0 0 0 0 0 0 0 0 0 0 0 0 0 0 0 0 0 0 0 0 0 0 0 0 0 0 0 0 0 0 0 0 0 0 0 0 0 0 0 0 0 0 0 0 0 0 0 0 0 0 0 0 0 0 0 0 0 0 0 0 0 0 0 0 0 0 0 0 0 0 0 0 0 0 0 0 0 0 0 0 0 0 0 0 0 0 0 0 0 0 0 0 0 0 0 0 0 0 0 0 0 0 0 0 0 0 0 0 0 0 0 0 0 0 0 0 0 0 0 0 0 0 0 0 0 0 0 0 0 0 0 0 0 0 0 0 0 0 0 0 0 0 0 0 0 0 0 0 0 0 0 0 0 0 0 0 0 0 0 0 0 0 0 0 0 0 0 0 0 0 0 0 0 0 0 0 0 0 0 0 0 0 0 0 0 0 0 0 0 0 0 0 0 0 0 0 0 0 0 0 0 0 0 0 0 0 0 0 0 0 0 0 0 0 0 0 0 0 0 0 0 0 0 0 0 0 0 0 0 0 0 0 0 0 0 0 0 0 0 0 0 0 0 0 0 0 0 0 0 0 0 0 0 0 0 0 0 0 0 0 0 0 0 0 0 0 0 0 0 0 0 0 0 0 0 0 0 0 0 0 0 0 0 0 0 0 0 0 0 0 0 0 0 0 0 0 0 0 0 0 0 0 0 0 0 0 0 0 0 0 0 0 0 0 0 0 0 0 0 0 0 0 0 0 0 0 0 0 0 0 0 0 0 0 0 0 0 0 0 0 0 0 0 0 0 0 0 0 0 0 0 0 0 0 0 0 0 0 0 0 0 0 0 0 0 0 0 0 0 0 0 0 0 0 0 0 0 0 0 0 0 0 0 0 0 0 0 0 0 0 0 0 0 0 0 0 0 0 0 0 0 0 0 0 0 0 0 0 0 0 0 0 0 0 0 0 0 0 0 0 0 0 0 0 0 0 0 0 0 0 0 0 0 0 0 0 0 0 0 0 0 0 0 0 0 0 0 0 0 0 0 0 0 0 0 0 0 0 0 0 0 0 0 0 0 0 0 0 0 0 0 0 0 0 0 0 0 0 0 0 0 0 0 0 0 0 0 0 0 0 0 0 0 0 0 0 0 0 0 0 0 0 0 0 0 0 0 0 0 0 0 0 0 0 0 0 0 0 0 0 0 0 0 0 0 0 0 0 0 0 0 0 0 0 0 0 0 0 0 0 0 0 0 0 0 0 0 0 0 0 0 0 0 0 0 0 0 0 0 0 0 0 0 0 0 0 0 0 0 0 0 0 0 0 0 0 0 0 0 0 0 0 0 0 0 0 0 0 0 0 0 0 0 0 0 0 0 0 0 0 0 0 0 0 0 0 0 0 0 0 0 0 0 0 0 0 0 0 0 0 0 0 0 0 0 0 0 0 0 0 0 0 0 0 0 0 0 0 0 0 0 0 0 0 0 0 0 0 0 0 0 0 0 0 0 0 0 0 0 0 0 0 0 0 0 0 0 0 0 0 0 0 0 0 0 0 0 0 0 0 0 0 0 0 0 0 0 0 0 0 0 0 0 0 0 0 0 0 0 0 0 0 0 0 0 0 0 0 0 0 0 0 0 0 0 0 0 0 0 0 0 0 0 0 0 0 0 0 0 0 0 0 0 0 0 0 0 0 0 0 0 0 0 0 0 0 0 0 0 0 0 0 0 0 0 0 0 0 0 0 0 0 0 0 0 0 0 0 0 0 0 0 0 0 0 0 0 0 0 0 0 0 0 0 0 0 0 0 0 0 0 0 0 0 0 0 0 0 0 0 0 0 0 0 0 0 0 0 0 0 0 0 0 0 0 0 0 0 0 0 0 0 0 0 0 0 0 0 0 0 0 0 0 0 0 0 0 0 0 0 0 0 0 0 0 0 0 0 0 0 0 0 0 0 0 0 0 0 0 0 0 0 0 0 0 0 0 0 0 0 0 0 0 0 0 0 0 0 0 0 0 0 0 0 0 0 0 0 0 0 0 0 0 0 0 0 0 0 0 0 0 0 0 0 0 0 0 0 0 0 0 0 0 0 0 0 0 0 0 0 0 0 0 0 0 0 0 0 0 0 0 0 0 0 0 0 0 0 0 0 0 0 0 0 0 0 0 0 0 0 0 0 0 0 0 0 0 0 0 0 0 0 0 0 0 0 0 0 0 0 0 0 0 0 0 0 0 0 0 0 0 0 0 0 0 0 0 0 0 0 0 0 0 0 0 0 0 0 0 0 0 0 0 0 0 0 0 0 0 0 0 0 0 0 0 0 0 0 0 0 0 0 0 0 0 0 0 0 0 0 0 0 0 0 0 0 0 0 0 0 0 0 0 0 0 0 0 0 0 0 0 0 0 0 0 0 0 0 0 0 0 0 0 0 0 0 0 0 0 0 0 0 0 0 0 0 0 0 0 0 0 0 0 0 0 0 0 0 0 0 0 0 0 0 0 0 0 0 0 0 0 0 0 0 0 0 0 0 0 0 0 0 0 0 0 0 0 0 0 0 0 0 0 0 0 0 0 0 0 0 0 0 0 0 0 0 0 0 0 0 0 0 0 0 0 0 0 0 0 0 0 0 0 0 0 0 0 0 0 0 0 0 0 0 0 0 0 0 0 0 0 0 0 0 0 0 0 0 0 0 0 0 0 0 0 0 0 0 0 0 0 0 0 0 0 0 0 0 0 0 0 0 0 0 0 0 0 0 0 0 0 0 0 0 0 0 0 0 0 0 0 0 0 0 0 0 0 0 0 0 0 0 0 0 0 0 0 0 0 0 0 0 0 0 0 0 0 0 0 0 0 0 0 0 0 0 0 0 0 0 0 0 0 0 0 0 0 0 0 0 0 0 0 0 0 0 0 0 0 0 0 0 0 0 0 0 0 0 0 0 0 0 0 0 0 0 0 0 0 0 0 0 0 0 0 0 0 0 0 0 0 0 0 0 0 0 0 0 0 0 0 0 0 0 0 0 0 0 0 0 0 0 0 0 0 0 0 0 0 0 0 0 0 0 0 0 0 0 0 0 0 0 0 0 0 0 0 0 0 0 0 0 0 0 0 0 0 0 0 0 0 0 0 0 0 0 0 0 0 0 0 0 0 0 0 0 0 0 0 0 0 0 0 0 0 0 0 0 0 0 0 0 0 0 0 0 0 0 0 0 0 0 0 0 0 0 0 0 0 0 0 0 0 0 0 0 0 0 0 0 0 0 0 0 0 0 0 0 0 0 0 0 0 0 0 0 0 0 0 0 0 0 0 0 0 0 0 0 0 0 0 0 0 0 0 0 0 0 0 0 0 0 0 0 0 0 0 0 0 0 0 0 0 0 0 0 0 0 0 0 0 0 0 0 0 0 0 0 0 0 0 0 0 0 0 0 0 0 0 0 0 0 0 0 0 0 0 0 0 0 0 0 0 0 0 0 0 0 0 0 0 0 0 0 0 0 0 0 0 0 0 0 0 0 0 0 0 0 0 0 0 0 0 0 0 0 0 0 0 0 0 0 0 0 0 0 0 0 0 0 0 0 0 0 0 0 0 0 0 0 0 0 0 0 0 0 0 0 0 0 0 0 0 0 0 0 0 0 0 0 0 0 0 0 0 0 0 0 0 0 0 0 0 0 0 0 0 0 0 0 0 0 0 0 0 0 0 0 0 0 0 0 0 0 0 0 0 0 0 0 0 0 0 0 0 0 0 0 0 0 0 0 0 0 0 0 0 0 0 0 0 0 0 0 0 0 0 0 0 0 0 0 0 0 0 0 0 0 0 0 0 0 0 0 0 0 0 0 0 0 0 0 0 0 0 0 0 0 0 0 0 0 0 0 0 0 0 0 0 0 0 0 0 0 0 0 0 0 0 0 0 0 0 0 0 0 0 0 0 0 0 0 0 0 0 0 0 0 0 0 0 0 0 0 0 0 0 0 0 0 0 0 0 0 0 0 0 0 0 0 0 0 0 0 0 0 0 0 0 0 0 0 0 0 0 0 0 0 0 0 0 0 0 0 0 0 0 0 0 0 0 0 0 0 0 0 0 0 0 0 0 0 0 0 0 0 0 0 0 0 0 0 0 0 0 0 0 0 0 0 0 0 0 0 0 0 0 0 0 0 0 0 0 0 0 0 0 0 0 0 0 0 0 0 0 0 0 0 0 0 0 0 0 0 0 0 0 0 0 0 0 0 0 0 0 0 0 0 0 0 0 0 0 0 0 0 0 0 0 0 0 0 0 0 0 0 0 0 0 0 0 0 0 0 0 0 0 0 0 0 0 0 0 0 0 0 0 0 0 0 0 0 0 0 0 0 0 0 0 0 0 0 0 0 0 0 0 0 0 0 0 0 0 0 0 0 0 0 0 0 0 0 0 0 0 0 0 0 0 0 0 0 0 0 0 0 0 0 0 0 0 0 0 0 0 0 0 0 0 0 0 0 0 0 0 0 0 0 0 0 0 0 0 0 0 0 0 0 0 0 0 0 0 0 0 0 0 0 0 0 0 0 0 0 0 0 0 0 0 0 0 0 0 0 0 0 0 0 0 0 0 0 0 0 0 0 0 0 0 0 0 0 0 0 0 0 0 0 0 0 0 0 0 0 0 0 0 0 0 0 0 0 0 0 0 0 0 0 0 0 0 0 0 0 0 0 0 0 0 0 0 0 0 0 0 0 0 0 0 0 0 0 0 0 0 0 0 0 0 0 0 0 0 0 0 0 0 0 0 0 0 0 0 0 0 0 0 0 0 0 0 0 0 0 0 0 0 0 0 0 0 0 0 0 0 0 0 0 0 0 0 0 0 0 0 0 0 0 0 0 0 0 0 0 0 0 0 0 0 0 0 0 0 0 0 0 0 0 0 0 0 0 0 0 0 0 0 0 0 0 0 0 0 0 0 0 0 0 0 0 0 0 0 0 0 0 0 0 0 0 0 0 0 0 0 0 0 0 0 0 0 0 0 0 0 0 0 0 0 0 0 0 0 0 0 0 0 0 0 0 0 0 0 0 0 0 0 0 0 0 0 0 0 0 0 0 0 0 0 0 0 0 0 0 0 0 0 0 0 0 0 0 0 0 0 0 0 0 0 0 0 0 0 0 0 0 0 0 0 0 0 0 0 0 0 0 0 0 0 0 0 0 0 0 0 0 0 0 0 0 0 0 0 0 0 0 0 0 0 0 0 0 0 0 0 0 0 0 0 0 0 0 0 0 0 0 0 0 0 0 0 0 0 0 0 0 0 0 0 0 0 0 0 0 0 0 0 0 0 0 0 0 0 0 0 0 0 0 0 0 0 0 0 0 0 0 0 0 0 0 0 0 0 0 0 0 0 0 0 0 0 0 0 0 0 0 0 0 0 0 0 0 0 0 0 0 0 0 0 0 0 0 0 0 0 0 0 0 0 0 0 0 0 0 0 0 0 0 0 0 0 0 0 0 0 0 0 0 0 0 0 0 0 0 0 0 0 0 0 0 0 0 0 0 0 0 0 0 0 0 0 0 0 0 0 0 0 0 0 0 0 0 0 0 0 0 0 0 0 0 0 0 0 0 0 0 0 0 0 0 0 0 0 0 0 0 0 0 0 0 0 0 0 0 0 0 0 0 0 0 0 0 0 0 0 0 0 0 0 0 0 0 0 0 0 0 0 0 0 0 0 0 0 0 0 0 0 0 0 0 0 0 0 0 0 0 0 0 0 0 0 0 0 0 0 0 0 0 0 0 0 0 0 0 0 0 0 0 0 0 0 0 0 0 0 0 0 0 0 0 0 0 0 0 0 0 0 0 0 0 0 0 0 0 0 0 0 0 0 0 0 0 0 0 0 0 0 0 0 0 0 0 0 0 0 0 0 0 0 0 0 0 0 0 0 0 0 0 0 0 0 0 0 0 0 0 0 0 0 0 0 0 0 0 0 0 0 0 0 0 0 0 0 0 0 0 0 0 0 0 0 0 0 0 0 0 0 0 0 0 0 0 0 0 0 0 0 0 0 0 0 0 0 0 0 0 0 0 0 0 0 0 0 0 0 0 0 0 0 0 0 0 0 0 0 0 0 0 0 0 0 0 0 0 0 0 0 0 0 0 0 0 0 0 0 0 0 0 0 0 0 0 0 0 0 0 0 0 0 0 0 0 0 0 0 0 0 0 0 0 0 0 0 0 0 0 0 0 0 0 0 0 0 0 0 0 0 0 0 0 0 0 0 0 0 0 0 0 0 0 0 0 0 0 0 0 0 0 0 0 0 0 0 0 0 0 0 0 0 0 0 0 0 0 0 0 0 0 0 0 0 0 0 0 0 0 0 0 0 0 0 0 0 0 0 0 0 0 0 0 0 0 0 0 0 0 0 0 0 0 0 0 0 0 0 0 0 0 0 0 0 0 0 0 0 0 0 0 0 0 0 0 0 0 0 0 0 0 0 0 0 0 0 0 0 0 0 0 0 0 0 0 0 0 0 0 0 0 0 0 0 0 0 0 0 0 0 0 0 0 0 0 0 0 0 0 0 0 0 0 0 0 0 0 0 0 0 0 0 0 0 0 0 0 0 0 0 0 0 0 0 0 0 0 0 0 0 0 0 0 0 0 0 0 0 0 0 0 0 0 0 0 0 0 0 0 0 0 0 0 0 0 0 0 0 0 0 0 0 0 0 0 0 0 0 0 0 0 0 0 0 0 0 0 0 0 0 0 0 0 0 0 0 0 0 0 0 0 0 0 0 0 0 0 0 0 0 0 0 0 0 0 0 0 0 0 0 0 0 0 0 0 0 0 0 0 0 0 0 0 0 0 0 0 0 0 0 0 0 0 0 0 0 0 0 0 0 0 0 0 0 0 0 0 0 0 0 0 0 0 0 0 0 0 0 0 0 0 0 0 0 0 0 0 0 0 0 0 0 0 0 0 0 0 0 0 0 0 0 0 0 0 0 0 0 0 0 0 0 0 0 0 0 0 0 0 0 0 0 0 0 0 0 0 0 0 0 0 0 0 0 0 0 0 0 0 0 0 0 0 0 0 0 0 0 0 0 0 0 0 0 0 0 0 0 0 0 0 0 0 0 0 0 0 0 0 0 0 0 0 0 0 0 0 0 0 0 0 0 0 0 0 0 0 0 0 0 0 0 0 0 0 0 0 0 0 0 0 0 0 0 0 0 0 0 0 0 0 0 0 0 0 0 0 0 0 0 0 0 0 0 0 0 0 0 0 0 0 0 0 0 0 0 0 0 0 0 0 0 0 0 0 0 0 0 0 0 0 0 0 0 0 0 0 0 0 0 0 0 0 0 0 0 0 0 0 0 0 0 0 0 0 0 0 0 0 0 0 0 0 0 0 0 0 0 0 0 0 0 0 0 0 0 0 0 0 0 0 0 0 0 0 0 0 0 0 0 0 0 0 0 0 0 0 0 0 0 0 0 0 0 0 0 0 0 0 0 0 0 0 0 0 0 0 0 0 0 0 0 0 0 0 0 0 0 0 0 0 0 0 0 0 0 0 0 0 0 0 0 0 0 0 0 0 0 0 0 0 0 0 0 0 0 0 0 0 0 0 0 0 0 0 0 0 0 0 0 0 0 0 0 0 0 0 0 0 0 0 0 0 0 0 0 0 0 0 0 0 0 0 0 0 0 0 0 0 0 0 0 0 0 0 0 0 0 0 0 0 0 0 0 0 0 0 0 0 0 0 0 0 0 0 0 0 0 0 0 0 0 0 0 0 0 0 0 0 0 0 0 0 0 0 0 0 0 0 0 0 0 0 0 0 0 0 0 0 0 0 0 0 0 0 0 0 0 0 0 0 0 0 0 0 0 0 0 0 0 0 0 0 0 0 0 0 0 0 0 0 0 0 0 0 0 0 0 0 0 0 0 0 0 0 0 0 0 0 0 0 0 0 0 0 0 0 0 0 0 0 0 0 0 0 0 0 0 0 0 0 0 0 0 0 0 0 0 0 0 0 0 0 0 0 0 0 0 0 0 0 0 0 0 0 0 0 0 0 0 0 0 0 0 0 0 0 0 0 0 0 0 0 0 0 0 0 0 0 0 0 0 0 0 0 0 0 0 0 0 0 0 0 0 0 0 0 0 0 0 0 0 0 0 0 0 0 0 0 0 0 0 0 0 0 0 0 0 0 0 0 0 0 0 0 0 0 0 0 0 0 0 0 0 0 0 0 0 0 0 0 0 0 0 0 0 0 0 0 0 0 0 0 0 0 0 0 0 0 0 0 0 0 0 0 0 0 0 0 0 0 0 0 0 0 0 0 0 0 0 0 0 0 0 0 0 0 0 0 0 0 0 0 0 0 0 0 0 0 0 0 0 0 0 0 0 0 0 0 0 0 0 0 0 0 0 0 0 0 0 0 0 0 0 0 0 0 0 0 0 0 0 0 0 0 0 0 0 0 0 0 0 0 0 0 0 0 0 0 0 0 0 0 0 0 0 0 0 0 0 0 0 0 0 0 0 0 0 0 0 0 0 0 0 0 0 0 0 0 0 0 0 0 0 0 0 0 0 0 0 0 0 0 0 0 0 0 0 0 0 0 0 0 0 0 0 0 0 0 0 0 0 0 0 0 0 0 0 0 0 0 0 0 0 0 0 0 0 0 0 0 0 0 0 0 0 0 0 0 0 0 0 0 0 0 0 0 0 0 0 0 0 0 0 0 0 0 0 0 0 0 0 0 0 0 0 0 0 0 0 0 0 0 0 0 0 0 0 0 0 0 0 0 0 0 0 0 0 0 0 0 0 0 0 0 0 0 0 0 0 0 0 0 0 0 0 0 0 0 0 0 0 0 0 0 0 0 0 0 0 0 0 0 0 0 0 0 0 0 0 0 0 0 0 0 0 0 0 0 0 0 0 0 0 0 0 0 0 0 0 0 0 0 0 0 0 0 0 0 0 0 0 0 0 0 0 0 0 0 0 0 0 0 0 0 0 0 0 0 0 0 0 0 0 0 0 0 0 0 0 0 0 0 0 0 0 0 0 0 0 0 0 0 0 0 0 0 0 0 0 0 0 0 0 0 0 0 0 0 0 0 0 0 0 0 0 0 0 0 0 0 0 0 0 0 0 0 0 0 0 0 0 0 0 0 0 0 0 0 0 0 0 0 0 0 0 0 0 0 0 0 0 0 0 0 0 0 0 0 0 0 0 0 0 0 0 0 0 0 0 0 0 0 0 0 0 0 0 0 0 0 0 0 0 0 0 0 0 0 0 0 0 0 0 0 0 0 0 0 0 0 0 0 0 0 0 0 0 0 0 0 0 0 0 0 0 0 0 0 0 0 0 0 0 0 0 0 0 0 0 0 0 0 0 0 0 0 0 0 0 0 0 0 0 0 0 0 0 0 0 0 0 0 0 0 0 0 0 0 0 0 0 0 0 0 0 0 0 0 0 0 0 0 0 0 0 0 0 0 0 0 0 0 0 0 0 0 0 0 0 0 0 0 0 0 0 0 0 0 0 0 0 0 0 0 0 0 0 0 0 0 0 0 0 0 0 0 0 0 0 0 0 0 0 0 0 0 0 0 0 0 0 0 0 0 0 0 0 0 0 0 0 0 0 0 0 0 0 0 0 0 0 0 0 0 0 0 0 0 0 0 0 0 0 0 0 0 0 0 0 0 0 0 0 0 0 0 0 0 0 0 0 0 0 0 0 0 0 0 0 0 0 0 0 0 0 0 0 0 0 0 0 0 0 0 0 0 0 0 0 0 0 0 0 0 0 0 0 0 0 0 0 0 0 0 0 0 0 0 0 0 0 0 0 0 0 0 0 0 0 0 0 0 0 0 0 0 0 0 0 0 0 0 0 0 0 0 0 0 0 0 0 0 0 0 0 0 0 0 0 0 0 0 0 0 0 0 0 0 0 0 0 0 0 0 0 0 0 0 0 0 0 0 0 0 0 0 0 0 0 0 0 0 0 0 0 0 0 0 0 0 0 0 0 0 0 0 0 0 0 0 0 0 0 0 0 0 0 0 0 0 0 0 0 0 0 0 0 0 0 0 0 0 0 0 0 0 0 0 0 0 0 0 0 0 0 0 0 0 0 0 0 0 0 0 0 0 0 0 0 0 0 0 0 0 0 0 0 0 0 0 0 0 0 0 0 0 0 0 0 0 0 0 0 0 0 0 0 0 0 0 0 0 0 0 0 0 0 0 0 0 0 0 0 0 0 0 0 0 0 0 0 0 0 0 0 0 0 0 0 0 0 0 0 0 0 0 0 0 0 0 0 0 0 0 0 0 0 0 0 0 0 0 0 0 0 0 0 0 0 0 0 0 0 0 0 0 0 0 0 0 0 0 0 0 0 0 0 0 0 0 0 0 0 0 0 0 0 0 0 0 0 0 0 0 0 0 0 0 0 0 0 0 0 0 0 0 0 0 0 0 0 0 0 0 0 0 0 0 0 0 0 0 0 0 0 0 0 0 0 0 0 0 0 0 0 0 0 0 0 0 0 0 0 0 0 0 0 0 0 0 0 0 0 0 0 0 0 0 0 0 0 0 0 0 0 0 0 0 0 0 0 0 0 0 0 0 0 0 0 0 0 0 0 0 0 0 0 0 0 0 0 0 0 0 0 0 0 0 0 0 0 0 0 0 0 0 0 0 0 0 0 0 0 0 0 0 0 0 0 0 0 0 0 0 0 0 0 0 0 0 0 0 0 0 0 0 0 0 0 0 0 0 0 0 0 0 0 0 0 0 0 0 0 0 0 0 0 0 0 0 0 0 0 0 0 0 0 0 0 0 0 0 0 0 0 0 0 0 0 0 0 0 0 0 0 0 0 0 0 0 0 0 0 0 0 0 0 0 0 0 0 0 0 0 0 0 0 0 0 0 0 0 0 0 0 0 0 0 0 0 0 0 0 0 0 0 0 0 0 0 0 0 0 0 0 0 0 0 0 0 0 0 0 0 0 0 0 0 0 0 0 0 0 0 0 0 0 0 0 0 0 0 0 0 0 0 0 0 0 0 0 0 0 0 0 0 0 0 0 0 0 0 0 0 0 0 0 0 0 0 0 0 0 0 0 0 0 0 0 0 0 0 0 0 0 0 0 0 0 0 0 0 0 0 0 0 0 0 0 0 0 0 0 0 0 0 0 0 0 0 0 0 0 0 0 0 0 0 0 0 0 0 0 0 0 0 0 0 0 0 0 0 0 0 0 0 0 0 0 0 0 0 0 0 0 0 0 0 0 0 0 0 0 0 0 0 0 0 0 0 0 0 0 0 0 0 0 0 0 0 0 0 0 0 0 0 0 0 0 0 0 0 0 0 0 0 0 0 0 0 0 0 0 0 0 0 0 0 0 0 0 0 0 0 0 0 0 0 0 0 0 0 0 0 0 0 0 0 0 0 0 0 0 0 0 0 0 0 0 0 0 0 0 0 0 0 0 0 0 0 0 0 0 0 0 0 0 0 0 0 0 0 0 0 0 0 0 0 0 0 0 0 0 0 0 0 0 0 0 0 0 0 0 0 0 0 0 0 0 0 0 0 0 0 0 0 0 0 0 0 0 0 0 0 0 0 0 0 0 0 0 0 0 0 0 0 0 0 0 0 0 0 0 0 0 0 0 0 0 0 0 0 0 0 0 0 0 0 0 0 0 0 0 0 0 0 0 0 0 0 0 0 0 0 0 0 0 0 0 0 0 0 0 0 0 0 0 0 0 0 0 0 0 0 0 0 0 0 0 0 0 0 0 0 0 0 0 0 0 0 0 0 0 0 0 0 0 0 0 0 0 0 0 0 0 0 0 0 0 0 0 0 0 0 0 0 0 0 0 0 0 0 0 0 0 0 0 0 0 0 0 0 0 0 0 0 0 0 0 0 0 0 0 0 0 0 0 0 0 0 0 0 0 0 0 0 0 0 0 0 0 0 0 0 0 0 0 0 0 0 0 0 0 0 0 0 0 0 0 0 0 0 0 0 0 0 0 0 0 0 0 0 0 0 0 0 0 0 0 0 0 0 0 0 0 0 0 0 0 0 0 0 0 0 0 0 0 0 0 0 0 0 0 0 0 0 0 0 0 0 0 0 0 0 0 0 0 0 0 0 0 0 0 0 0 0 0 0 0 0 0 0 0 0 0 0 0 0 0 0 0 0 0 0 0 0 0 0 0 0 0 0 0 0 0 0 0 0 0 0 0 0 0 0 0 0 0 0 0 0 0 0 0 0 0 0 0 0 0 0 0 0 0 0 0 0 0 0 0 0 0 0 0 0 0 0 0 0 0 0 0 0 0 0 0 0 0 0 0 0 0 0 0 0 0 0 0 0 0 0 0 0 0 0 0 0 0 0 0 0 0 0 0 0 0 0 0 0 0 0 0 0 0 0 0 0 0 0 0 0 0 0 0 0 0 0 0 0 0 0 0 0 0 0 0 0 0 0 0 0 0 0 0 0 0 0 0 0 0 0 0 0 0 0 0 0 0 0 0 0 0 0 0 0 0 0 0 0 0 0 0 0 0 0 0 0 0 0 0 0 0 0 0 0 0 0 0 0 0 0 0 0 0 0 0 0 0 0 0 0 0 0 0 0 0 0 0 0 0 0 0 0 0 0 0 0 0 0 0 0 0 0 0 0 0 0 0 0 0 0 0 0 0 0 0 0 0 0 0 0 0 0 0 0 0 0 0 0 0 0 0 0 0 0 0 0 0 0 0 0 0 0 0 0 0 0 0 0 0 0 0 0 0 0 0 0 0 0 0 0 0 0 0 0 0 0 0 0 0 0 0 0 0 0 0 0 0 0 0 0 0 0 0 0 0 0 0 0 0 0 0 0 0 0 0 0 0 0 0 0 0 0 0 0 0 0 0 0 0 0 0 0 0 0 0 0 0 0 0 0 0 0 0 0 0 0 0 0 0 0 0 0 0 0 0 0 0 0 0 0 0 0 0 0 0 0 0 0 0 0 0 0 0 0 0 0 0 0 0 0 0 0 0 0 0 0 0 0 0 0 0 0 0 0 0 0 0 0 0 0 0 0 0 0 0 0 0 0 0 0 0 0 0 0 0 0 0 0 0 0 0 0 0 0 0 0 0 0 0 0 0 0 0 0 0 0 0 0 0 0 0 0 0 0 0 0 0 0 0 0 0 0 0 0 0 0 0 0 0 0 0 0 0 0 0 0 0 0 0 0 0 0 0 0 0 0 0 0 0 0 0 0 0 0 0 0 0 0 0 0 0 0 0 0 0 0 0 0 0 0 0 0 0 0 0 0 0 0 0 0 0 0 0 0 0 0 0 0 0 0 0 0 0 0 0 0 0 0 0 0 0 0 0 0 0 0 0 0 0 0 0 0 0 0 0 0 0 0 0 0 0 0 0 0 0 0 0 0 0 0 0 0 0 0 0 0 0 0 0 0 0 0 0 0 0 0 0 0 0 0 0 0 0 0 0 0 0 0 0 0 0 0 0 0 0 0 0 0 0 0 0 0 0 0 0 0 0 0 0 0 0 0 0 0 0 0 0 0 0 0 0 0 0 0 0 0 0 0 0 0 0 0 0 0 0 0 0 0 0 0 0 0 0 0 0 0 0 0 0 0 0 0 0 0 0 0 0 0 0 0 0 0 0 0 0 0 0 0 0 0 0 0 0 0 0 0 0 0 0 0 0 0 0 0 0 0 0 0 0 0 0 0 0 0 0 0 0 0 0 0 0 0 0 0 0 0 0 0 0 0 0 0 0 0 0 0 0 0 0 0 0 0 0 0 0 0 0 0 0 0 0 0 0 0 0 0 0 0 0 0 0 0 0 0 0 0 0 0 0 0 0 0 0 0 0 0 0 0 0 0 0 0 0 0 0 0 0 0 0 0 0 0 0 0 0 0 0 0 0 0 0 0 0 0 0 0 0 0 0 0 0 0 0 0 0 0 0 0 0 0 0 0 0 0 0 0 0 0 0 0 0 0 0 0 0 0 0 0 0 0 0 0 0 0 0 0 0 0 0 0 0 0 0 0 0 0 0 0 0 0 0 0 0 0 0 0 0 0 0 0 0 0 0 0 0 0 0 0 0 0 0 0 0 0 0 0 0 0 0 0 0 0 0 0 0 0 0 0 0 0 0 0 0 0 0 0 0 0 0 0 0 0 0 0 0 0 0 0 0 0 0 0 0 0 0 0 0 0 0 0 0 0 0 0 0 0 0 0 0 0 0 0 0 0 0 0 0 0 0 0 0 0 0 0 0 0 0 0 0 0 0 0 0 0 0 0 0 0 0 0 0 0 0 0 0 0 0 0 0 0 0 0 0 0 0 0 0 0 0 0 0 0 0 0 0 0 0 0 0 0 0 0 0 0 0 0 0 0 0 0 0 0 0 0 0 0 0 0 0 0 0 0 0 0 0 0 0 0 0 0 0 0 0 0 0 0 0 0 0 0 0 0 0 0 0 0 0 0 0 0 0 0 0 0 0 0 0 0 0 0 0 0 0 0 0 0 0 0 0 0 0 0 0 0 0 0 0 0 0 0 0 0 0 0 0 0 0 0 0 0 0 0 0 0 0 0 0 0 0 0 0 0 0 0 0 0 0 0 0 0 0 0 0 0 0 0 0 0 0 0 0 0 0 0 0 0 0 0 0 0 0 0 0 0 0 0 0 0 0 0 0 0 0 0 0 0 0 0 0 0 0 0 0 0 0 0 0 0 0 0 0 0 0 0 0 0 0 0 0 0 0 0 0 0 0 0 0 0 0 0 0 0 0 0 0 0 0 0 0 0 0 0 0 0 0 0 0 0 0 0 0 0 0 0 0 0 0 0 0 0 0 0 0 0 0 0 0 0 0 0 0 0 0 0 0 0 0 0 0 0 0 0 0 0 0 0 0 0 0 0 0 0 0 0 0 0 0 0 0 0 0 0 0 0 0 0 0 0 0 0 0 0 0 0 0 0 0 0 0 0 0 0 0 0 0 0 0 0 0 0 0 0 0 0 0 0 0 0 0 0 0 0 0 0 0 0 0 0 0 0 0 0 0 0 0 0 0 0 0 0 0 0 0 0 0 0 0 0 0 0 0 0 0 0 0 0 0 0 0 0 0 0 0 0 0 0 0 0 0 0 0 0 0 0 0 0 0 0 0 0 0 0 0 0 0 0 0 0 0 0 0 0 0 0 0 0 0 0 0 0 0 0 0 0 0 0 0 0 0 0 0 0 0 0 0 0 0 0 0 0 0 0 0 0 0 0 0 0 0 0 0 0 0 0 0 0 0 0 0 0 0 0 0 0 0 0 0 0 0 0 0 0 0 0 0 0 0 0 0 0 0 0 0 0 0 0 0 0 0 0 0 0 0 0 0 0 0 0 0 0 0 0 0 0 0 0 0 0 0 0 0 0 0 0 0 0 0 0 0 0 0 0 0 0 0 0 0 0 0 0 0 0 0 0 0 0 0 0 0 0 0 0 0 0 0 0 0 0 0 0 0 0 0 0 0 0 0 0 0 0 0 0 0 0 0 0 0 0 0 0 0 0 0 0 0 0 0 0 0 0 0 0 0 0 0 0 0 0 0 0 0 0 0 0 0 0 0 0 0 0 0 0 0 0 0 0 0 0 0 0 0 0 0 0 0 0 0 0 0 0 0 0 0 0 0 0 0 0 0 0 0 0 0 0 0 0 0 0 0 0 0 0 0 0 0 0 0 0 0 0 0 0 0 0 0 0 0 0 0 0 0 0 0 0 0 0 0 0 0 0 0 0 0 0 0 0 0 0 0 0 0 0 0 0 0 0 0 0 0 0 0 0 0 0 0 0 0 0 0 0 0 0 0 0 0 0 0 0 0 0 0 0 0 0 0 0 0 0 0 0 0 0 0 0 0 0 0 0 0 0 0 0 0 0 0 0 0 0 0 0 0 0 0 0 0 0 0 0 0 0 0 0 0 0 0 0 0 0 0 0 0 0 0 0 0 0 0 0 0 0 0 0 0 0 0 0 0 0 0 0 0 0 0 0 0 0 0 0 0 0 0 0 0 0 0 0 0 0 0 0 0 0 0 0 0 0 0 0 0 0 0 0 0 0 0 0 0 0 0 0 0 0 0 0 0 0 0 0 0 0 0 0 0 0 0 0 0 0 0 0 0 0 0 0 0 0 0 0 0 0 0 0 0 0 0 0 0 0 0 0 0 0 0 0 0 0 0 0 0 0 0 0 0 0 0 0 0 0 0 0 0 0 0 0 0 0 0 0 0 0 0 0 0 0 0 0 0 0 0 0 0 0 0 0 0 0 0 0 0 0 0 0 0 0 0 0 0 0 0 0 0 0 0 0 0 0 0 0 0 0 0 0 0 0 0 0 0 0 0 0 0 0 0 0 0 0 0 0 0 0 0 0 0 0 0 0 0 0 0 0 0 0 0 0 0 0 0 0 0 0 0 0 0 0 0 0 0 0 0 0 0 0 0 0 0 0 0 0 0 0 0 0 0 0 0 0 0 0 0 0 0 0 0 0 0 0 0 0 0 0 0 0 0 0 0 0 0 0 0 0 0 0 0 0 0 0 0 0 0 0 0 0 0 0 0 0 0 0 0 0 0 0 0 0 0 0 0 0 0 0 0 0 0 0 0 0 0 0 0 0 0 0 0 0 0 0 0 0 0 0 0 0 0 0 0 0 0 0 0 0 0 0 0 0 0 0 0 0 0 0 0 0 0 0 0 0 0 0 0 0 0 0 0 0 0 0 0 0 0 0 0 0 0 0 0 0 0 0 0 0 0 0 0 0 0 0 0 0 0 0 0 0 0 0 0 0 0 0 0 0 0 0 0 0 0 0 0 0 0 0 0 0 0 0 0 0 0 0 0 0 0 0 0 0 0 0 0 0 0 0 0 0 0 0 0 0 0 0 0 0 0 0 0 0 0 0 0 0 0 0 0 0 0 0 0 0 0 0 0 0 0 0 0 0 0 0 0 0 0 0 0 0 0 0 0 0 0 0 0 0 0 0 0 0 0 0 0 0 0 0 0 0 0 0 0 0 0 0 0 0 0 0 0 0 0 0 0 0 0 0 0 0 0 0 0 0 0 0 0 0 0 0 0 0 0 0 0 0 0 0 0 0 0 0 0 0 0 0 0 0 0 0 0 0 0 0 0 0 0 0 0 0 0 0 0 0 0 0 0 0 0 0 0 0 0 0 0 0 0 0 0 0 0 0 0 0 0 0 0 0 0 0 0 0 0 0 0 0 0 0 0 0 0 0 0 0 0 0 0 0 0 0 0 0 0 0 0 0 0 0 0 0 0 0 0 0 0 0 0 0 0 0 0 0 0 0 0 0 0 0 0 0 0 0 0 0 0 0 0 0 0 0 0 0 0 0 0 0 0 0 0 0 0 0 0 0 0 0 0 0 0 0 0 0 0 0 0 0 0 0 0 0 0 0 0 0 0 0 0 0 0 0 0 0 0 0 0 0 0 0 0 0 0 0 0 0 0 0 0 0 0 0 0 0 0 0 0 0 0 0 0 0 0 0 0 0 0 0 0 0 0 0 0 0 0 0 0 0 0 0 0 0 0 0 0 0 0 0 0 0 0 0 0 0 0 0 0 0 0 0 0 0 0 0 0 0 0 0 0 0 0 0 0 0 0 0 0 0 0 0 0 0 0 0 0 0 0 0 0 0 0 0 0 0 0 0 0 0 0 0 0 0 0 0 0 0 0 0 0 0 0 0 0 0 0 0 0 0 0 0 0 0 0 0 0 0 0 0 0 0 0 0 0 0 0 0 0 0 0 0 0 0 0 0 0 0 0 0 0 0 0 0 0 0 0 0 0 0 0 0 0 0 0 0 0 0 0 0 0 0 0 0 0 0 0 0 0 0 0 0 0 0 0 0 0 0 0 0 0 0 0 0 0 0 0 0 0 0 0 0 0 0 0 0 0 0 0 0 0 0 0 0 0 0 0 0 0 0 0 0 0 0 0 0 0 0 0 0 0 0 0 0 0 0 0 0 0 0 0 0 0 0 0 0 0 0 0 0 0 0 0 0 0 0 0 0 0 0 0 0 0 0 0 0 0 0 0 0 0 0 0 0 0 0 0 0 0 0 0 0 0 0 0 0 0 0 0 0 0 0 0 0 0 0 0 0 0 0 0 0 0 0 0 0 0 0 0 0 0 0 0 0 0 0 0 0 0 0 0 0 0 0 0 0 0 0 0 0 0 0 0 0 0 0 0 0 0 0 0 0 0 0 0 0 0 0 0 0 0 0 0 0 0 0 0 0 0 0 0 0 0 0 0 0 0 0 0 0 0 0 0 0 0 0 0 0 0 0 0 0 0 0 0 0 0 0 0 0 0 0 0 0 0 0 0 0 0 0 0 0 0 0 0 0 0 0 0 0 0 0 0 0 0 0 0 0 0 0 0 0 0 0 0 0 0 0 0 0 0 0 0 0 0 0 0 0 0 0 0 0 0 0 0 0 0 0 0 0 0 0 0 0 0 0 0 0 0 0 0 0 0 0 0 0 0 0 0 0 0 0 0 0 0 0 0 0 0 0 0 0 0 0 0 0 0 0 0 0 0 0 0 0 0 0 0 0 0 0 0 0 0 0 0 0 0 0 0 0 0 0 0 0 0 0 0 0 0 0 0 0 0 0 0 0 0 0 0 0 0 0 0 0 0 0 0 0 0 0 0 0 0 0 0 0 0 0 0 0 0 0 0 0 0 0 0 0 0 0 0 0 0 0 0 0 0 0 0 0 0 0 0 0 0 0 0 0 0 0 0 0 0 0 0 0 0 0 0 0 0 0 0 0 0 0 0 0 0 0 0 0 0 0 0 0 0 0 0 0 0 0 0 0 0 0 0 0 0 0 0 0 0 0 0 0 0 0 0 0 0 0 0 0 0 0 0 0 0 0 0 0 0 0 0 0 0 0 0 0 0 0 0 0 0 0 0 0 0 0 0 0 0 0 0 0 0 0 0 0 0 0 0 0 0 0 0 0 0 0 0 0 0 0 0 0 0 0 0 0 0 0 0 0 0 0 0 0 0 0 0 0 0 0 0 0 0 0 0 0 0 0 0 0 0 0 0 0 0 0 0 0 0 0 0 0 0 0 0 0 0 0 0 0 0 0 0 0 0 0 0 0 0 0 0 0 0 0 0 0 0 0 0 0 0 0 0 0 0 0 0 0 0 0 0 0 0 0 0 0 0 0 0 0 0 0 0 0 0 0 0 0 0 0 0 0 0 0 0 0 0 0 0 0 0 0 0 0 0 0 0 0 0 0 0 0 0 0 0 0 0 0 0 0 0 0 0 0 0 0 0 0 0 0 0 0 0 0 0 0 0 0 0 0 0 0 0 0 0 0 0 0 0 0 0 0 0 0 0 0 0 0 0 0 0 0 0 0 0 0 0 0 0 0 0 0 0 0 0 0 0 0 0 0 0 0 0 0 0 0 0 0 0 0 0 0 0 0 0 0 0 0 0 0 0 0 0 0 0 0 0 0 0 0 0 0 0 0 0 0 0 0 0 0 0 0 0 0 0 0 0 0 0 0 0 0 0 0 0 0 0 0 0 0 0 0 0 0 0 0 0 0 0 0 0 0 0 0 0 0 0 0 0 0 0 0 0 0 0 0 0 0 0 0 0 0 0 0 0 0 0 0 0 0 0 0 0 0 0 0 0 0 0 0 0 0 0 0 0 0 0 0 0 0 0 0 0 0 0 0 0 0 0 0 0 0 0 0 0 0 0 0 0 0 0 0 0 0 0 0 0 0 0 0 0 0 0 0 0 0 0 0 0 0 0 0 0 0 0 0 0 0 0 0 0 0 0 0 0 0 0 0 0 0 0 0 0 0 0 0 0 0 0 0 0 0 0 0 0 0 0 0 0 0 0 0 0 0 0 0 0 0 0 0 0 0 0 0 0 0 0 0 0 0 0 0 0 0 0 0 0 0 0 0 0 0 0 0 0 0 0 0 0 0 0 0 0 0 0 0 0 0 0 0 0 0 0 0 0 0 0 0 0 0 0 0 0 0 0 0 0 0 0 0 0 0 0 0 0 0 0 0 0 0 0 0 0 0 0 0 0 0 0 0 0 0 0 0 0 0 0 0 0 0 0 0 0 0 0 0 0 0 0 0 0 0 0 0 0 0 0 0 0 0 0 0 0 0 0 0 0 0 0 0 0 0 0 0 0 0 0 0 0 0 0 0 0 0 0 0 0 0 0 0 0 0 0 0 0 0 0 0 0 0 0 0 0 0 0 0 0 0 0 0 0 0 0 0 0 0 0 0 0 0 0 0 0 0 0 0 0 0 0 0 0 0 0 0 0 0 0 0 0 0 0 0 0 0 0 0 0 0 0 0 0 0 0 0 0 0 0 0 0 0 0 0 0 0 0 0 0 0 0 0 0 0 0 0 0 0 0 0 0 0 0 0 0 0 0 0 0 0 0 0 0 0 0 0 0 0 0 0 0 0 0 0 0 0 0 0 0 0 0 0 0 0 0 0 0 0 0 0 0 0 0 0 0 0 0 0 0 0 0 0 0 0 0 0 0 0 0 0 0 0 0 0 0 0 0 0 0 0 0 0 0 0 0 0 0 0 0 0 0 0 0 0 0 0 0 0 0 0 0 0 0 0 0 0 0 0 0 0 0 0 0 0 0 0 0 0 0 0 0 0 0 0 0 0 0 0 0 0 0 0 0 0 0 0 0 0 0 0 0 0 0 0 0 0 0 0 0 0 0 0 0 0 0 0 0 0 0 0 0 0 0 0 0 0 0 0 0 0 0 0 0 0 0 0 0 0 0 0 0 0 0 0 0 0 0 0 0 0 0 0 0 0 0 0 0 0 0 0 0 0 0 0 0 0 0 0 0 0 0 0 0 0 0 0 0 0 0 0 0 0 0 0 0 0 0 0 0 0 0 0 0 0 0 0 0 0 0 0 0 0 0 0 0 0 0 0 0 0 0 0 0 0 0 0 0 0 0 0 0 0 0 0 0 0 0 0 0 0 0 0 0 0 0 0 0 0 0 0 0 0 0 0 0 0 0 0 0 0 0 0 0 0 0 0 0 0 0 0 0 0 0 0 0 0 0 0 0 0 0 0 0 0 0 0 0 0 0 0 0 0 0 0 0 0 0 0 0 0 0 0 0 0 0 0 0 0 0 0 0 0 0 0 0 0 0 0 0 0 0 0 0 0 0 0 0 0 0 0 0 0 0 0 0 0 0 0 0 0 0 0 0 0 0 0 0 0 0 0 0 0 0 0 0 0 0 0 0 0 0 0 0 0 0 0 0 0 0 0 0 0 0 0 0 0 0 0 0 0 0 0 0 0 0 0 0 0 0 0 0 0 0 0 0 0 0 0 0 0 0 0 0 0 0 0 0 0 0 0 0 0 0 0 0 0 0 0 0 0 0 0 0 0 0 0 0 0 0 0 0 0 0 0 0 0 0 0 0 0 0 0 0 0 0 0 0 0 0 0 0 0 0 0 0 0 0 0 0 0 0 0 0 0 0 0 0 0 0 0 0 0 0 0 0 0 0 0 0 0 0 0 0 0 0 0 0 0 0 0 0 0 0 0 0 0 0 0 0 0 0 0 0 0 0 0 0 0 0 0 0 0 0 0 0 0 0 0 0 0 0 0 0 0 0 0 0 0 0 0 0 0 0 0 0 0 0 0 0 0 0 0 0 0 0 0 0 0 0 0 0 0 0 0 0 0 0 0 0 0 0 0 0 0 0 0 0 0 0 0 0 0 0 0 0 0 0 0 0 0 0 0 0 0 0 0 0 0 0 0 0 0 0 0 0 0 0 0 0 0 0 0 0 0 0 0 0 0 0 0 0 0 0 0 0 0 0 0 0 0 0 0 0 0 0 0 0 0 0 0 0 0 0 0 0 0 0 0 0 0 0 0 0 0 0 0 0 0 0 0 0 0 0 0 0 0 0 0 0 0 0 0 0 0 0 0 0 0 0 0 0 0 0 0 0 0 0 0 0 0 0 0 0 0 0 0 0 0 0 0 0 0 0 0 0 0 0 0 0 0 0 0 0 0 0 0 0 0 0 0 0 0 0 0 0 0 0 0 0 0 0 0 0 0 0 0 0 0 0 0 0 0 0 0 0 0 0 0 0 0 0 0 0 0 0 0 0 0 0 0 0 0 0 0 0 0 0 0 0 0 0 0 0 0 0 0 0 0 0 0 0 0 0 0 0 0 0 0 0 0 0 0 0 0 0 0 0 0 0 0 0 0 0 0 0 0 0 0 0 0 0 0 0 0 0 0 0 0 0 0 0 0 0 0 0 0 0 0 0 0 0 0 0 0 0 0 0 0 0 0 0 0 0 0 0 0 0 0 0 0 0 0 0 0 0 0 0 0 0 0 0 0 0 0 0 0 0 0 0 0 0 0 0 0 0 0 0 0 0 0 0 0 0 0 0 0 0 0 0 0 0 0 0 0 0 0 0 0 0 0 0 0 0 0 0 0 0 0 0 0 0 0 0 0 0 0 0 0 0 0 0 0 0 0 0 0 0 0 0 0 0 0 0 0 0 0 0 0 0 0 0 0 0 0 0 0 0 0 0 0 0 0 0 0 0 0 0 0 0 0 0 0 0 0 0 0 0 0 0 0 0 0 0 0 0 0 0 0 0 0 0 0 0 0 0 0 0 0 0 0 0 0 0 0 0 0 0 0 0 0 0 0 0 0 0 0 0 0 0 0 0 0 0 0 0 0 0 0 0 0 0 0 0 0 0 0 0 0 0 0 0 0 0 0 0 0 0 0 0 0 0 0 0 0 0 0 0 0 0 0 0 0 0 0 0 0 0 0 0 0 0 0 0 0 0 0 0 0 0 0 0 0 0 0 0 0 0 0 0 0 0 0 0 0 0 0 0 0 0 0 0 0 0 0 0 0 0 0 0 0 0 0 0 0 0 0 0 0 0 0 0 0 0 0 0 0 0 0 0 0 0 0 0 0 0 0 0 0 0 0 0 0 0 0 0 0 0 0 0 0 0 0 0 0 0 0 0 0 0 0 0 0 0 0 0 0 0 0 0 0 0 0 0 0 0 0 0 0 0 0 0 0 0 0 0 0 0 0 0 0 0 0 0 0 0 0 0 0 0 0 0 0 0 0 0 0 0 0 0 0 0 0 0 0 0 0 0 0 0 0 0 0 0 0 0 0 0 0 0 0 0 0 0 0 0 0 0 0 0 0 0 0 0 0 0 0 0 0 0 0 0 0 0 0 0 0 0 0 0 0 0 0 0 0 0 0 0 0 0 0 0 0 0 0 0 0 0 0 0 0 0 0 0 0 0 0 0 0 0 0 0 0 0 0 0 0 0 0 0 0 0 0 0 0 0 0 0 0 0 0 0 0 0 0 0 0 0 0 0 0 0 0 0 0 0 0 0 0 0 0 0 0 0 0 0 0 0 0 0 0 0 0 0 0 0 0 0 0 0 0 0 0 0 0 0 0 0 0 0 0 0 0 0 0 0 0 0 0 0 0 0 0 0 0 0 0 0 0 0 0 0 0 0 0 0 0 0 0 0 0 0 0 0 0 0 0 0 0 0 0 0 0 0 0 0 0 0 0 0 0 0 0 0 0 0 0 0 0 0 0 0 0 0 0 0 0 0 0 0 0 0 0 0 0 0 0 0 0 0 0 0 0 0 0 0 0 0 0 0 0 0 0 0 0 0 0 0 0 0 0 0 0 0 0 0 0 0 0 0 0 0 0 0 0 0 0 0 0 0 0 0 0 0 0 0 0 0 0 0 0 0 0 0 0 0 0 0 0 0 0 0 0 0 0 0 0 0 0 0 0 0 0 0 0 0 0 0 0 0 0 0 0 0 0 0 0 0 0 0 0 0 0 0 0 0 0 0 0 0 0 0 0 0 0 0 0 0 0 0 0 0 0 0 0 0 0 0 0 0 0 0 0 0 0 0 0 0 0 0 0 0 0 0 0 0 0 0 0 0 0 0 0 0 0 0 0 0 0 0 0 0 0 0 0 0 0 0 0 0 0 0 0 0 0 0 0 0 0 0 0 0 0 0 0 0 0 0 0 0 0 0 0 0 0 0 0 0 0 0 0 0 0 0 0 0 0 0 0 0 0 0 0 0 0 0 0 0 0 0 0 0 0 0 0 0 0 0 0 0 0 0 0 0 0 0 0 0 0 0 0 0 0 0 0 0 0 0 0 0 0 0 0 0 0 0 0 0 0 0 0 0 0 0 0 0 0 0 0 0 0 0 0 0 0 0 0 0 0 0 0 0 0 0 0 0 0 0 0 0 0 0 0 0 0 0 0 0 0 0 0 0 0 0 0 0 0 0 0 0 0 0 0 0 0 0 0 0 0 0 0 0 0 0 0 0 0 0 0 0 0 0 0 0 0 0 0 0 0 0 0 0 0 0 0 0 0 0 0 0 0 0 0 0 0 0 0 0 0 0 0 0 0 0 0 0 0 0 0 0 0 0 0 0 0 0 0 0 0 0 0 0 0 0 0 0 0 0 0 0 0 0 0 0 0 0 0 0 0 0 0 0 0 0 0 0 0 0 0 0 0 0 0 0 0 0 0 0 0 0 0 0 0 0 0 0 0 0 0 0 0 0 0 0 0 0 0 0 0 0 0 0 0 0 0 0 0 0 0 0 0 0 0 0 0 0 0 0 0 0 0 0 0 0 0 0 0 0 0 0 0 0 0 0 0 0 0 0 0 0 0 0 0 0 0 0 0 0 0 0 0 0 0 0 0 0 0 0 0 0 0 0 0 0 0 0 0 0 0 0 0 0 0 0 0 0 0 0 0 0 0 0 0 0 0 0 0 0 0 0 0 0 0 0 0 0 0 0 0 0 0 0 0 0 0 0 0 0 0 0 0 0 0 0 0 0 0 0 0 0 0 0 0 0 0 0 0 0 0 0 0 0 0 0 0 0 0 0 0 0 0 0 0 0 0 0 0 0 0 0 0 0 0 0 0 0 0 0 0 0 0 0 0 0 0 0 0 0 0 0 0 0 0 0 0 0 0 0 0 0 0 0 0 0 0 0 0 0 0 0 0 0 0 0 0 0 0 0 0 0 0 0 0 0 0 0 0 0 0 0 0 0 0 0 0 0 0 0 0 0 0 0 0 0 0 0 0 0 0 0 0 0 0 0 0 0 0 0 0 0 0 0 0 0 0 0 0 0 0 0 0 0 0 0 0 0 0 0 0 0 0 0 0 0 0 0 0 0 0 0 0 0 0 0 0 0 0 0 0 0 0 0 0 0 0 0 0 0 0 0 0 0 0 0 0 0 0 0 0 0 0 0 0 0 0 0 0 0 0 0 0 0 0 0 0 0 0 0 0 0 0 0 0 0 0 0 0 0 0 0 0 0 0 0 0 0 0 0 0 0 0 0 0 0 0 0 0 0 0 0 0 0 0 0 0 0 0 0 0 0 0 0 0 0 0 0 0 0 0 0 0 0 0 0 0 0 0 0 0 0 0 0 0 0 0 0 0 0 0 0 0 0 0 0 0 0 0 0 0 0 0 0 0 0 0 0 0 0 0 0 0 0 0 0 0 0 0 0 0 0 0 0 0 0 0 0 0 0 0 0 0 0 0 0 0 0 0 0 0 0 0 0 0 0 0 0 0 0 0 0 0 0 0 0 0 0 0 0 0 0 0 0 0 0 0 0 0 0 0 0 0 0 0 0 0 0 0 0 0 0 0 0 0 0 0 0 0 0 0 0 0 0 0 0 0 0 0 0 0 0 0 0 0 0 0 0 0 0 0 0 0 0 0 0 0 0 0 0 0 0 0 0 0 0 0 0 0 0 0 0 0 0 0 0 0 0 0 0 0 0 0 0 0 0 0 0 0 0 0 0 0 0 0 0 0 0 0 0 0 0 0 0 0 0 0 0 0 0 0 0 0 0 0 0 0 0 0 0 0 0 0 0 0 0 0 0 0 0 0 0 0 0 0 0 0 0 0 0 0 0 0 0 0 0 0 0 0 0 0 0 0 0 0 0 0 0 0 0 0 0 0 0 0 0 0 0 0 0 0 0 0 0 0 0 0 0 0 0 0 0 0 0 0 0 0 0 0 0 0 0 0 0 0 0 0 0 0 0 0 0 0 0 0 0 0 0 0 0 0 0 0 0 0 0 0 0 0 0 0 0 0 0 0 0 0 0 0 0 0 0 0 0 0 0 0 0 0 0 0 0 0 0 0 0 0 0 0 0 0 0 0 0 0 0 0 0 0 0 0 0 0 0 0 0 0 0 0 0 0 0 0 0 0 0 0 0 0 0 0 0 0 0 0 0 0 0 0 0 0 0 0 0 0 0 0 0 0 0 0 0 0 0 0 0 0 0 0 0 0 0 0 0 0 0 0 0 0 0 0 0 0 0 0 0 0 0 0 0 0 0 0 0 0 0 0 0 0 0 0 0 0 0 0 0 0 0 0 0 0 0 0 0 0 0 0 0 0 0 0 0 0 0 0 0 0 0 0 0 0 0 0 0 0 0 0 0 0 0 0 0 0 0 0 0 0 0 0 0 0 0 0 0 0 0 0 0 0 0 0 0 0 0 0 0 0 0 0 0 0 0 0 0 0 0 0 0 0 0 0 0 0 0 0 0 0 0 0 0 0 0 0 0 0 0 0 0 0 0 0 0 0 0 0 0 0 0 0 0 0 0 0 0 0 0 0 0 0 0 0 0 0 0 0 0 0 0 0 0 0 0 0 0 0 0 0 0 0 0 0 0 0 0 0 0 0 0 0 0 0 0 0 0 0 0 0 0 0 0 0 0 0 0 0 0 0 0 0 0 0 0 0 0 0 0 0 0 0 0 0 0 0 0 0 0 0 0 0 0 0 0 0 0 0 0 0 0 0 0 0 0 0 0 0 0 0 0 0 0 0 0 0 0 0 0 0 0 0 0 0 0 0 0 0 0 0 0 0 0 0 0 0 0 0 0 0 0 0 0 0 0 0 0 0 0 0 0 0 0 0 0 0 0 0 0 0 0 0 0 0 0 0 0 0 0 0 0 0 0 0 0 0 0 0 0 0 0 0 0 0 0 0 0 0 0 0 0 0 0 0 0 0 0 0 0 0 0 0 0 0 0 0 0 0 0 0 0 0 0 0 0 0 0 0 0 0 0 0 0 0 0 0 0 0 0 0 0 0 0 0 0 0 0 0 0 0 0 0 0 0 0 0 0 0 0 0 0 0 0 0 0 0 0 0 0 0 0 0 0 0 0 0 0 0 0 0 0 0 0 0 0 0 0 0 0 0 0 0 0 0 0 0 0 0 0 0 0 0 0 0 0 0 0 0 0 0 0 0 0 0 0 0 0 0 0 0 0 0 0 0 0 0 0 0 0 0 0 0 0 0 0 0 0 0 0 0 0 0 0 0 0 0 0 0 0 0 0 0 0 0 0 0 0 0 0 0 0 0 0 0 0 0 0 0 0 0 0 0 0 0 0 0 0 0 0 0 0 0 0 0 0 0 0 0 0 0 0 0 0 0 0 0 0 0 0 0 0 0 0 0 0 0 0 0 0 0 0 0 0 0 0 0 0 0 0 0 0 0 0 0 0 0 0 0 0 0 0 0 0 0 0 0 0 0 0 0 0 0 0 0 0 0 0 0 0 0 0 0 0 0 0 0 0 0 0 0 0 0 0 0 0 0 0 0 0 0 0 0 0 0 0 0 0 0 0 0 0 0 0 0 0 0 0 0 0 0 0 0 0 0 0 0 0 0 0 0 0 0 0 0 0 0 0 0 0 0 0 0 0 0 0 0 0 0 0 0 0 0 0 0 0 0 0 0 0 0 0 0 0 0 0 0 0 0 0 0 0 0 0 0 0 0 0 0 0 0 0 0 0 0 0 0 0 0 0 0 0 0 0 0 0 0 0 0 0 0 0 0 0 0 0 0 0 0 0 0 0 0 0 0 0 0 0 0 0 0 0 0 0 0 0 0 0 0 0 0 0 0 0 0 0 0 0 0 0 0 0 0 0 0 0 0 0 0 0 0 0 0 0 0 0 0 0 0 0 0 0 0 0 0 0 0 0 0 0 0 0 0 0 0 0 0 0 0 0 0 0 0 0 0 0 0 0 0 0 0 0 0 0 0 0 0 0 0 0 0 0 0 0 0 0 0 0 0 0 0 0 0 0 0 0 0 0 0 0 0 0 0 0 0 0 0 0 0 0 0 0 0 0 0 0 0 0 0 0 0 0 0 0 0 0 0 0 0 0 0 0 0 0 0 0 0 0 0 0 0 0 0 0 0 0 0 0 0 0 0 0 0 0 0 0 0 0 0 0 0 0 0 0 0 0 0 0 0 0 0 0 0 0 0 0 0 0 0 0 0 0 0 0 0 0 0 0 0 0 0 0 0 0 0 0 0 0 0 0 0 0 0 0 0 0 0 0 0 0 0 0 0 0 0 0 0 0 0 0 0 0 0 0 0 0 0 0 0 0 0 0 0 0 0 0 0 0 0 0 0 0 0 0 0 0 0 0 0 0 0 0 0 0 0 0 0 0 0 0 0 0 0 0 0 0 0 0 0 0 0 0 0 0 0 0 0 0 0 0 0 0 0 0 0 0 0 0 0 0 0 0 0 0 0 0 0 0 0 0 0 0 0 0 0 0 0 0 0 0 0 0 0 0 0 0 0 0 0 0 0 0 0 0 0 0 0 0 0 0 0 0 0 0 0 0 0 0 0 0 0 0 0 0 0 0 0 0 0 0 0 0 0 0 0 0 0 0 0 0 0 0 0 0 0 0 0 0 0 0 0 0 0 0 0 0 0 0 0 0 0 0 0 0 0 0 0 0 0 0 0 0 0 0 0 0 0 0 0 0 0 0 0 0 0 0 0 0 0 0 0 0 0 0 0 0 0 0 0 0 0 0 0 0 0 0 0 0 0 0 0 0 0 0 0 0 0 0 0 0 0 0 0 0 0 0 0 0 0 0 0 0 0 0 0 0 0 0 0 0 0 0 0 0 0 0 0 0 0 0 0 0 0 0 0 0 0 0 0 0 0 0 0 0 0 0 0 0 0 0 0 0 0 0 0 0 0 0 0 0 0 0 0 0 0 0 0 0 0 0 0 0 0 0 0 0 0 0 0 0 0 0 0 0 0 0 0 0 0 0 0 0 0 0 0 0 0 0 0 0 0 0 0 0 0 0 0 0 0 0 0 0 0 0 0 0 0 0 0 0 0 0 0 0 0 0 0 0 0 0 0 0 0 0 0 0 0 0 0 0 0 0 0 0 0 0 0 0 0 0 0 0 0 0 0 0 0 0 0 0 0 0 0 0 0 0 0 0 0 0 0 0 0 0 0 0 0 0 0 0 0 0 0 0 0 0 0 0 0 0 0 0 0 0 0 0 0 0 0 0 0 0 0 0 0 0 0 0 0 0 0 0 0 0 0 0 0 0 0 0 0 0 0 0 0 0 0 0 0 0 0 0 0 0 0 0 0 0 0 0 0 0 0 0 0 0 0 0 0 0 0 0 0 0 0 0 0 0 0 0 0 0 0 0 0 0 0 0 0 0 0 0 0 0 0 0 0 0 0 0 0 0 0 0 0 0 0 0 0 0 0 0 0 0 0 0 0 0 0 0 0 0 0 0 0 0 0 0 0 0 0 0 0 0 0 0 0 0 0 0 0 0 0 0 0 0 0 0 0 0 0 0 0 0 0 0 0 0 0 0 0 0 0 0 0 0 0 0 0 0 0 0 0 0 0 0 0 0 0 0 0 0 0 0 0 0 0 0 0 0 0 0 0 0 0 0 0 0 0 0 0 0 0 0 0 0 0 0 0 0 0 0 0 0 0 0 0 0 0 0 0 0 0 0 0 0 0 0 0 0 0 0 0 0 0 0 0 0 0 0 0 0 0 0 0 0 0 0 0 0 0 0 0 0 0 0 0 0 0 0 0 0 0 0 0 0 0 0 0 0 0 0 0 0 0 0 0 0 0 0 0 0 0 0 0 0 0 0 0 0 0 0 0 0 0 0 0 0 0 0 0 0 0 0 0 0 0 0 0 0 0 0 0 0 0 0 0 0 0 0 0 0 0 0 0 0 0 0 0 0 0 0 0 0 0 0 0 0 0 0 0 0 0 0 0 0 0 0 0 0 0 0 0 0 0 0 0 0 0 0 0 0 0 0 0 0 0 0 0 0 0 0 0 0 0 0 0 0 0 0 0 0 0 0 0 0 0 0 0 0 0 0 0 0 0 0 0 0 0 0 0 0 0 0 0 0 0 0 0 0 0 0 0 0 0 0 0 0 0 0 0 0 0 0 0 0 0 0 0 0 0 0 0 0 0 0 0 0 0 0 0 0 0 0 0 0 0 0 0 0 0 0 0 0 0 0 0 0 0 0 0 0 0 0 0 0 0 0 0 0 0 0 0 0 0 0 0 0 0 0 0 0 0 0 0 0 0 0 0 0 0 0 0 0 0 0 0 0 0 0 0 0 0 0 0 0 0 0 0 0 0 0 0 0 0 0 0 0 0 0 0 0 0 0 0 0 0 0 0 0 0 0 0 0 0 0 0 0 0 0 0 0 0 0 0 0 0 0 0 0 0 0 0 0 0 0 0 0 0 0 0 0 0 0 0 0 0 0 0 0 0 0 0 0 0 0 0 0 0 0 0 0 0 0 0 0 0 0 0 0 0 0 0 0 0 0 0 0 0 0 0 0 0 0 0 0 0 0 0 0 0 0 0 0 0 0 0 0 0 0 0 0 0 0 0 0 0 0 0 0 0 0 0 0 0 0 0 0 0 0 0 0 0 0 0 0 0 0 0 0 0 0 0 0 0 0 0 0 0 0 0 0 0 0 0 0 0 0 0 0 0 0 0 0 0 0 0 0 0 0 0 0 0 0 0 0 0 0 0 0 0 0 0 0 0 0 0 0 0 0 0 0 0 0 0 0 0 0 0 0 0 0 0 0 0 0 0 0 0 0 0 0 0 0 0 0 0 0 0 0 0 0 0 0 0 0 0 0 0 0 0 0 0 0 0 0 0 0 0 0 0 0 0 0 0 0 0 0 0 0 0 0 0 0 0 0 0 0 0 0 0 0 0 0 0 0 0 0 0 0 0 0 0 0 0 0 0 0 0 0 0 0 0 0 0 0 0 0 0 0 0 0 0 0 0 0 0 0 0 0 0 0 0 0 0 0 0 0 0 0 0 0 0 0 0 0 0 0 0 0 0 0 0 0 0 0 0 0 0 0 0 0 0 0 0 0 0 0 0 0 0 0 0 0 0 0 0 0 0 0 0 0 0 0 0 0 0 0 0 0 0 0 0 0 0 0 0 0 0 0 0 0 0 0 0 0 0 0 0 0 0 0 0 0 0 0 0 0 0 0 0 0 0 0 0 0 0 0 0 0 0 0 0 0 0 0 0 0 0 0 0 0 0 0 0 0 0 0 0 0 0 0 0 0 0 0 0 0 0 0 0 0 0 0 0 0 0 0 0 0 0 0 0 0 0 0 0 0 0 0 0 0 0 0 0 0 0 0 0 0 0 0 0 0 0 0 0 0 0 0 0 0 0 0 0 0 0 0 0 0 0 0 0 0 0 0 0 0 0 0 0 0 0 0 0 0 0 0 0 0 0 0 0 0 0 0 0 0 0 0 0 0 0 0 0 0 0 0 0 0 0 0 0 0 0 0 0 0 0 0 0 0 0 0 0 0 0 0 0 0 0 0 0 0 0 0 0 0 0 0 0 0 0 0 0 0 0 0 0 0 0 0 0 0 0 0 0 0 0 0 0 0 0 0 0 0 0 0 0 0 0 0 0 0 0 0 0 0 0 0 0 0 0 0 0 0 0 0 0 0 0 0 0 0 0 0 0 0 0 0 0 0 0 0 0 0 0 0 0 0 0 0 0 0 0 0 0 0 0 0 0 0 0 0 0 0 0 0 0 0 0 0 0 0 0 0 0 0 0 0 0 0 0 0 0 0 0 0 0 0 0 0 0 0 0 0 0 0 0 0 0 0 0 0 0 0 0 0 0 0 0 0 0 0 0 0 0 0 0 0 0 0 0 0 0 0 0 0 0 0 0 0 0 0 0 0 0 0 0 0 0 0 0 0 0 0 0 0 0 0 0 0 0 0 0 0 0 0 0 0 0 0 0 0 0 0 0 0 0 0 0 0 0 0 0 0 0 0 0 0 0 0 0 0 0 0 0 0 0 0 0 0 0 0 0 0 0 0 0 0 0 0 0 0 0 0 0 0 0 0 0 0 0 0 0 0 0 0 0 0 0 0 0 0 0 0 0 0 0 0 0 0 0 0 0 0 0 0 0 0 0 0 0 0 0 0 0 0 0 0 0 0 0 0 0 0 0 0 0 0 0 0 0 0 0 0 0 0 0 0 0 0 0 0 0 0 0 0 0 0 0 0 0 0 0 0 0 0 0 0 0 0 0 0 0 0 0 0 0 0 0 0 0 0 0 0 0 0 0 0 0 0 0 0 0 0 0 0 0 0 0 0 0 0 0 0 0 0 0 0 0 0 0 0 0 0 0 0 0 0 0 0 0 0 0 0 0 0 0 0 0 0 0 0 0 0 0 0 0 0 0 0 0 0 0 0 0 0 0 0 0 0 0 0 0 0 0 0 0 0 0 0 0 0 0 0 0 0 0 0 0 0 0 0 0 0 0 0 0 0 0 0 0 0 0 0 0 0 0 0 0 0 0 0 0 0 0 0 0 0 0 0 0 0 0 0 0 0 0 0 0 0 0 0 0 0 0 0 0 0 0 0 0 0 0 0 0 0 0 0 0 0 0 0 0 0 0 0 0 0 0 0 0 0 0 0 0 0 0 0 0 0 0 0 0 0 0 0 0 0 0 0 0 0 0 0 0 0 0 0 0 0 0 0 0 0 0 0 0 0 0 0 0 0 0 0 0 0 0 0 0 0 0 0 0 0 0 0 0 0 0 0 0 0 0 0 0 0 0 0 0 0 0 0 0 0 0 0 0 0 0 0 0 0 0 0 0 0 0 0 0 0 0 0 0 0 0 0 0 0 0 0 0 0 0 0 0 0 0 0 0 0 0 0 0 0 0 0 0 0 0 0 0 0 0 0 0 0 0 0 0 0 0 0 0 0 0 0 0 0 0 0 0 0 0 0 0 0 0 0 0 0 0 0 0 0 0 0 0 0 0 0 0 0 0 0 0 0 0 0 0 0 0 0 0 0 0 0 0 0 0 0 0 0 0 0 0 0 0 0 0 0 0 0 0 0 0 0 0 0 0 0 0 0 0 0 0 0 0 0 0 0 0 0 0 0 0 0 0 0 0 0 0 0 0 0 0 0 0 0 0 0 0 0 0 0 0 0 0 0 0 0 0 0 0 0 0 0 0 0 0 0 0 0 0 0 0 0 0 0 0 0 0 0 0 0 0 0 0 0 0 0 0 0 0 0 0 0 0 0 0 0 0 0 0 0 0 0 0 0 0 0 0 0 0 0 0 0 0 0 0 0 0 0 0 0 0 0 0 0 0 0 0 0 0 0 0 0 0 0 0 0 0 0 0 0 0 0 0 0 0 0 0 0 0 0 0 0 0 0 0 0 0 0 0 0 0 0 0 0 0 0 0 0 0 0 0 0 0 0 0 0 0 0 0 0 0 0 0 0 0 0 0 0 0 0 0 0 0 0 0 0 0 0 0 0 0 0 0 0 0 0 0 0 0 0 0 0 0 0 0 0 0 0 0 0 0 0 0 0 0 0 0 0 0 0 0 0 0 0 0 0 0 0 0 0 0 0 0 0 0 0 0 0 0 0 0 0 0 0 0 0 0 0 0 0 0 0 0 0 0 0 0 0 0 0 0 0 0 0 0 0 0 0 0 0 0 0 0 0 0 0 0 0 0 0 0 0 0 0 0 0 0 0 0 0 0 0 0 0 0 0 0 0 0 0 0 0 0 0 0 0 0 0 0 0 0 0 0 0 0 0 0 0 0 0 0 0 0 0 0 0 0 0 0 0 0 0 0 0 0 0 0 0 0 0 0 0 0 0 0 0 0 0 0 0 0 0 0 0 0 0 0 0 0 0 0 0 0 0 0 0 0 0 0 0 0 0 0 0 0 0 0 0 0 0 0 0 0 0 0 0 0 0 0 0 0 0 0 0 0 0 0 0 0 0 0 0 0 0 0 0 0 0 0 0 0 0 0 0 0 0 0 0 0 0 0 0 0 0 0 0 0 0 0 0 0 0 0 0 0 0 0 0 0 0 0 0 0 0 0 0 0 0 0 0 0 0 0 0 0 0 0 0 0 0 0 0 0 0 0 0 0 0 0 0 0 0 0 0 0 0 0 0 0 0 0 0 0 0 0 0 0 0 0 0 0 0 0 0 0 0 0 0 0 0 0 0 0 0 0 0 0 0 0 0 0 0 0 0 0 0 0 0 0 0 0 0 0 0 0 0 0 0 0 0 0 0 0 0 0 0 0 0 0 0 0 0 0 0 0 0 0 0 0 0 0 0 0 0 0 0 0 0 0 0 0 0 0 0 0 0 0 0 0 0 0 0 0 0 0 0 0 0 0 0 0 0 0 0 0 0 0 0 0 0 0 0 0 0 0 0 0 0 0 0 0 0 0 0 0 0 0 0 0 0 0 0 0 0 0 0 0 0 0 0 0 0 0 0 0 0 0 0 0 0 0 0 0 0 0 0 0 0 0 0 0 0 0 0 0 0 0 0 0 0 0 0 0 0 0 0 0 0 0 0 0 0 0 0 0 0 0 0 0 0 0 0 0 0 0 0 0 0 0 0 0 0 0 0 0 0 0 0 0 0 0 0 0 0 0 0 0 0 0 0 0 0 0 0 0 0 0 0 0 0 0 0 0 0 0 0 0 0 0 0 0 0 0 0 0 0 0 0 0 0 0 0 0 0 0 0 0 0 0 0 0 0 0 0 0 0 0 0 0 0 0 0 0 0 0 0 0 0 0 0 0 0 0 0 0 0 0 0 0 0 0 0 0 0 0 0 0 0 0 0 0 0 0 0 0 0 0 0 0 0 0 0 0 0 0 0 0 0 0 0 0 0 0 0 0 0 0 0 0 0 0 0 0 0 0 0 0 0 0 0 0 0 0 0 0 0 0 0 0 0 0 0 0 0 0 0 0 0 0 0 0 0 0 0 0 0 0 0 0 0 0 0 0 0 0 0 0 0 0 0 0 0 0 0 0 0 0 0 0 0 0 0 0 0 0 0 0 0 0 0 0 0 0 0 0 0 0 0 0 0 0 0 0 0 0 0 0 0 0 0 0 0 0 0 0 0 0 0 0 0 0 0 0 0 0 0 0 0 0 0 0 0 0 0 0 0 0 0 0 0 0 0 0 0 0 0 0 0 0 0 0 0 0 0 0 0 0 0 0 0 0 0 0 0 0 0 0 0 0 0 0 0 0 0 0 0 0 0 0 0 0 0 0 0 0 0 0 0 0 0 0 0 0 0 0 0 0 0 0 0 0 0 0 0 0 0 0 0 0 0 0 0 0 0 0 0 0 0 0 0 0 0 0 0 0 0 0 0 0 0 0 0 0 0 0 0 0 0 0 0 0 0 0 0 0 0 0 0 0 0 0 0 0 0 0 0 0 0 0 0 0 0 0 0 0 0 0 0 0 0 0 0 0 0 0 0 0 0 0 0 0 0 0 0 0 0 0 0 0 0 0 0 0 0 0 0 0 0 0 0 0 0 0 0 0 0 0 0 0 0 0 0 0 0 0 0 0 0 0 0 0 0 0 0 0 0 0 0 0 0 0 0 0 0 0 0 0 0 0 0 0 0 0 0 0 0 0 0 0 0 0 0 0 0 0 0 0 0 0 0 0 0 0 0 0 0 0 0 0 0 0 0 0 0 0 0 0 0 0 0 0 0 0 0 0 0 0 0 0 0 0 0 0 0 0 0 0 0 0 0 0 0 0 0 0 0 0 0 0 0 0 0 0 0 0 0 0 0 0 0 0 0 0 0 0 0 0 0 0 0 0 0 0 0 0 0 0 0 0 0 0 0 0 0 0 0 0 0 0 0 0 0 0 0 0 0 0 0 0 0 0 0 0 0 0 0 0 0 0 0 0 0 0 0 0 0 0 0 0 0 0 0 0 0 0 0 0 0 0 0 0 0 0 0 0 0 0 0 0 0 0 0 0 0 0 0 0 0 0 0 0 0 0 0 0 0 0 0 0 0 0 0 0 0 0 0 0 0 0 0 0 0 0 0 0 0 0 0 0 0 0 0 0 0 0 0 0 0 0 0 0 0 0 0 0 0 0 0 0 0 0 0 0 0 0 0 0 0 0 0 0 0 0 0 0 0 0 0 0 0 0 0 0 0 0 0 0 0 0 0 0 0 0 0 0 0 0 0 0 0 0 0 0 0 0 0 0 0 0 0 0 0 0 0 0 0 0 0 0 0 0 0 0 0 0 0 0 0 0 0 0 0 0 0 0 0 0 0 0 0 0 0 0 0 0 0 0 0 0 0 0 0 0 0 0 0 0 0 0 0 0 0 0 0 0 0 0 0 0 0 0 0 0 0 0 0 0 0 0 0 0 0 0 0 0 0 0 0 0 0 0 0 0 0 0 0 0 0 0 0 0 0 0 0 0 0 0 0 0 0 0 0 0 0 0 0 0 0 0 0 0 0 0 0 0 0 0 0 0 0 0 0 0 0 0 0 0 0 0 0 0 0 0 0 0 0 0 0 0 0 0 0 0 0 0 0 0 0 0 0 0 0 0 0 0 0 0 0 0 0 0 0 0 0 0 0 0 0 0 0 0 0 0 0 0 0 0 0 0 0 0 0 0 0 0 0 0 0 0 0 0 0 0 0 0 0 0 0 0 0 0 0 0 0 0 0 0 0 0 0 0 0 0 0 0 0 0 0 0 0 0 0 0 0 0 0 0 0 0 0 0 0 0 0 0 0 0 0 0 0 0 0 0 0 0 0 0 0 0 0 0 0 0 0 0 0 0 0 0 0 0 0 0 0 0 0 0 0 0 0 0 0 0 0 0 0 0 0 0 0 0 0 0 0 0 0 0 0 0 0 0 0 0 0 0 0 0 0 0 0 0 0 0 0 0 0 0 0 0 0 0 0 0 0 0 0 0 0 0 0 0 0 0 0 0 0 0 0 0 0 0 0 0 0 0 0 0 0 0 0 0 0 0 0 0 0 0 0 0 0 0 0 0 0 0 0 0 0 0 0 0 0 0 0 0 0 0 0 0 0 0 0 0 0 0 0 0 0 0 0 0 0 0 0 0 0 0 0 0 0 0 0 0 0 0 0 0 0 0 0 0 0 0 0 0 0 0 0 0 0 0 0 0 0 0 0 0 0 0 0 0 0 0 0 0 0 0 0 0 0 0 0 0 0 0 0 0 0 0 0 0 0 0 0 0 0 0 0 0 0 0 0 0 0 0 0 0 0 0 0 0 0 0 0 0 0 0 0 0 0 0 0 0 0 0 0 0 0 0 0 0 0 0 0 0 0 0 0 0 0 0 0 0 0 0 0 0 0 0 0 0 0 0 0 0 0 0 0 0 0 0 0 0 0 0 0 0 0 0 0 0 0 0 0 0 0 0 0 0 0 0 0 0 0 0 0 0 0 0 0 0 0 0 0 0 0 0 0 0 0 0 0 0 0 0 0 0 0 0 0 0 0 0 0 0 0 0 0 0 0 0 0 0 0 0 0 0 0 0 0 0 0 0 0 0 0 0 0 0 0 0 0 0 0 0 0 0 0 0 0 0 0 0 0 0 0 0 0 0 0 0 0 0 0 0 0 0 0 0 0 0 0 0 0 0 0 0 0 0 0 0 0 0 0 0 0 0 0 0 0 0 0 0 0 0 0 0 0 0 0 0 0 0 0 0 0 0 0 0 0 0 0 0 0 0 0 0 0 0 0 0 0 0 0 0 0 0 0 0 0 0 0 0 0 0 0 0 0 0 0 0 0 0 0 0 0 0 0 0 0 0 0 0 0 0 0 0 0 0 0 0 0 0 0 0 0 0 0 0 0 0 0 0 0 0 0 0 0 0 0 0 0 0 0 0 0 0 0 0 0 0 0 0 0 0 0 0 0 0 0 0 0 0 0 0 0 0 0 0 0 0 0 0 0 0 0 0 0 0 0 0 0 0 0 0 0 0 0 0 0 0 0 0 0 0 0 0 0 0 0 0 0 0 0 0 0 0 0 0 0 0 0 0 0 0 0 0 0 0 0 0 0 0 0 0 0 0 0 0 0 0 0 0 0 0 0 0 0 0 0 0 0 0 0 0 0 0 0 0 0 0 0 0 0 0 0 0 0 0 0 0 0 0 0 0 0 0 0 0 0 0 0 0 0 0 0 0 0 0 0 0 0 0 0 0 0 0 0 0 0 0 0 0 0 0 0 0 0 0 0 0 0 0 0 0 0 0 0 0 0 0 0 0 0 0 0 0 0 0 0 0 0 0 0 0 0 0 0 0 0 0 0 0 0 0 0 0 0 0 0 0 0 0 0 0 0 0 0 0 0 0 0 0 0 0 0 0 0 0 0 0 0 0 0 0 0 0 0 0 0 0 0 0 0 0 0 0 0 0 0 0 0 0 0 0 0 0 0 0 0 0 0 0 0 0 0 0 0 0 0 0 0 0 0 0 0 0 0 0 0 0 0 0 0 0 0 0 0 0 0 0 0 0 0 0 0 0 0 0 0 0 0 0 0 0 0 0 0 0 0 0 0 0 0 0 0 0 0 0 0 0 0 0 0 0 0 0 0 0 0 0 0 0 0 0 0 0 0 0 0 0 0 0 0 0 0 0 0 0 0 0 0 0 0 0 0 0 0 0 0 0 0 0 0 0 0 0 0 0 0 0 0 0 0 0 0 0 0 0 0 0 0 0 0 0 0 0 0 0 0 0 0 0 0 0 0 0 0 0 0 0 0 0 0 0 0 0 0 0 0 0 0 0 0 0 0 0 0 0 0 0 0 0 0 0 0 0 0 0 0 0 0 0 0 0 0 0 0 0 0 0 0 0 0 0 0 0 0 0 0 0 0 0 0 0 0 0 0 0 0 0 0 0 0 0 0 0 0 0 0 0 0 0 0 0 0 0 0 0 0 0 0 0 0 0 0 0 0 0 0 0 0 0 0 0 0 0 0 0 0 0 0 0 0 0 0 0 0 0 0 0 0 0 0 0 0 0 0 0 0 0 0 0 0 0 0 0 0 0 0 0 0 0 0 0 0 0 0 0 0 0 0 0 0 0 0 0 0 0 0 0 0 0 0 0 0 0 0 0 0 0 0 0 0 0 0 0 0 0 0 0 0 0 0 0 0 0 0 0 0 0 0 0 0 0 0 0 0 0 0 0 0 0 0 0 0 0 0 0 0 0 0 0 0 0 0 0 0 0 0 0 0 0 0 0 0 0 0 0 0 0 0 0 0 0 0 0 0 0 0 0 0 0 0 0 0 0 0 0 0 0 0 0 0 0 0 0 0 0 0 0 0 0 0 0 0 0 0 0 0 0 0 0 0 0 0 0 0 0 0 0 0 0 0 0 0 0 0 0 0 0 0 0 0 0 0 0 0 0 0 0 0 0 0 0 0 0 0 0 0 0 0 0 0 0 0 0 0 0 0 0 0 0 0 0 0 0 0 0 0 0 0 0 0 0 0 0 0 0 0 0 0 0 0 0 0 0 0 0 0 0 0 0 0 0 0 0 0 0 0 0 0 0 0 0 0 0 0 0 0 0 0 0 0 0 0 0 0 0 0 0 0 0 0 0 0 0 0 0 0 0 0 0 0 0 0 0 0 0 0 0 0 0 0 0 0 0 0 0 0 0 0 0 0 0 0 0 0 0 0 0 0 0 0 0 0 0 0 0 0 0 0 0 0 0 0 0 0 0 0 0 0 0 0 0 0 0 0 0 0 0 0 0 0 0 0 0 0 0 0 0 0 0 0 0 0 0 0 0 0 0 0 0 0 0 0 0 0 0 0 0 0 0 0 0 0 0 0 0 0 0 0 0 0 0 0 0 0 0 0 0 0 0 0 0 0 0 0 0 0 0 0 0 0 0 0 0 0 0 0 0 0 0 0 0 0 0 0 0 0 0 0 0 0 0 0 0 0 0 0 0 0 0 0 0 0 0 0 0 0 0 0 0 0 0 0 0 0 0 0 0 0 0 0 0 0 0 0 0 0 0 0 0 0 0 0 0 0 0 0 0 0 0 0 0 0 0 0 0 0 0 0 0 0 0 0 0 0 0 0 0 0 0 0 0 0 0 0 0 0 0 0 0 0 0 0 0 0 0 0 0 0 0 0 0 0 0 0 0 0 0 0 0 0 0 0 0 0 0 0 0 0 0 0 0 0 0 0 0 0 0 0 0 0 0 0 0 0 0 0 0 0 0 0 0 0 0 0 0 0 0 0 0 0 0 0 0 0 0 0 0 0 0 0 0 0 0 0 0 0 0 0 0 0 0 0 0 0 0 0 0 0 0 0 0 0 0 0 0 0 0 0 0 0 0 0 0 0 0 0 0 0 0 0 0 0 0 0 0 0 0 0 0 0 0 0 0 0 0 0 0 0 0 0 0 0 0 0 0 0 0 0 0 0 0 0 0 0 0 0 0 0 0 0 0 0 0 0 0 0 0 0 0 0 0 0 0 0 0 0 0 0 0 0 0 0 0 0 0 0 0 0 0 0 0 0 0 0 0 0 0 0 0 0 0 0 0 0 0 0 0 0 0 0 0 0 0 0 0 0 0 0 0 0 0 0 0 0 0 0 0 0 0 0 0 0 0 0 0 0 0 0 0 0 0 0 0 0 0 0 0 0 0 0 0 0 0 0 0 0 0 0 0 0 0 0 0 0 0 0 0 0 0 0 0 0 0 0 0 0 0 0 0 0 0 0 0 0 0 0 0 0 0 0 0 0 0 0 0 0 0 0 0 0 0 0 0 0 0 0 0 0 0 0 0 0 0 0 0 0 0 0 0 0 0 0 0 0 0 0 0 0 0 0 0 0 0 0 0 0 0 0 0 0 0 0 0 0 0 0 0 0 0 0 0 0 0 0 0 0 0 0 0 0 0 0 0 0 0 0 0 0 0 0 0 0 0 0 0 0 0 0 0 0 0 0 0 0 0 0 0 0 0 0 0 0 0 0 0 0 0 0 0 0 0 0 0 0 0 0 0 0 0 0 0 0 0 0 0 0 0 0 0 0 0 0 0 0 0 0 0 0 0 0 0 0 0 0 0 0 0 0 0 0 0 0 0 0 0 0 0 0 0 0 0 0 0 0 0 0 0 0 0 0 0 0 0 0 0 0 0 0 0 0 0 0 0 0 0 0 0 0 0 0 0 0 0 0 0 0 0 0 0 0 0 0 0 0 0 0 0 0 0 0 0 0 0 0 0 0 0 0 0 0 0 0 0 0 0 0 0 0 0 0 0 0 0 0 0 0 0 0 0 0 0 0 0 0 0 0 0 0 0 0 0 0 0 0 0 0 0 0 0 0 0 0 0 0 0 0 0 0 0 0 0 0 0 0 0 0 0 0 0 0 0 0 0 0 0 0 0 0 0 0 0 0 0 0 0 0 0 0 0 0 0 0 0 0 0 0 0 0 0 0 0 0 0 0 0 0 0 0 0 0 0 0 0 0 0 0 0 0 0 0 0 0 0 0 0 0 0 0 0 0 0 0 0 0 0 0 0 0 0 0 0 0 0 0 0 0 0 0 0 0 0 0 0 0 0 0 0 0 0 0 0 0 0 0 0 0 0 0 0 0 0 0 0 0 0 0 0 0 0 0 0 0 0 0 0 0 0 0 0 0 0 0 0 0 0 0 0 0 0 0 0 0 0 0 0 0 0 0 0 0 0 0 0 0 0 0 0 0 0 0 0 0 0 0 0 0 0 0 0 0 0 0 0 0 0 0 0 0 0 0 0 0 0 0 0 0 0 0 0 0 0 0 0 0 0 0 0 0 0 0 0 0 0 0 0 0 0 0 0 0 0 0 0 0 0 0 0 0 0 0 0 0 0 0 0 0 0 0 0 0 0 0 0 0 0 0 0 0 0 0 0 0 0 0 0 0 0 0 0 0 0 0 0 0 0 0 0 0 0 0 0 0 0 0 0 0 0 0 0 0 0 0 0 0 0 0 0 0 0 0 0 0 0 0 0 0 0 0 0 0 0 0 0 0 0 0 0 0 0 0 0 0 0 0 0 0 0 0 0 0 0 0 0 0 0 0 0 0 0 0 0 0 0 0 0 0 0 0 0 0 0 0 0 0 0 0 0 0 0 0 0 0 0 0 0 0 0 0 0 0 0 0 0 0 0 0 0 0 0 0 0 0 0 0 0 0 0 0 0 0 0 0 0 0 0 0 0 0 0 0 0 0 0 0 0 0 0 0 0 0 0 0 0 0 0 0 0 0 0 0 0 0 0 0 0 0 0 0 0 0 0 0 0 0 0 0 0 0 0 0 0 0 0 0 0 0 0 0 0 0 0 0 0 0 0 0 0 0 0 0 0 0 0 0 0 0 0 0 0 0 0 0 0 0 0 0 0 0 0 0 0 0 0 0 0 0 0 0 0 0 0 0 0 0 0 0 0 0 0 0 0 0 0 0 0 0 0 0 0 0 0 0 0 0 0 0 0 0 0 0 0 0 0 0 0 0 0 0 0 0 0 0 0 0 0 0 0 0 0 0 0 0 0 0 0 0 0 0 0 0 0 0 0 0 0 0 0 0 0 0 0 0 0 0 0 0 0 0 0 0 0 0 0 0 0 0 0 0 0 0 0 0 0 0 0 0 0 0 0 0 0 0 0 0 0 0 0 0 0 0 0 0 0 0 0 0 0 0 0 0 0 0 0 0 0 0 0 0 0 0 0 0 0 0 0 0 0 0 0 0 0 0 0 0 0 0 0 0 0 0 0 0 0 0 0 0 0 0 0 0 0 0 0 0 0 0 0 0 0 0 0 0 0 0 0 0 0 0 0 0 0 0 0 0 0 0 0 0 0 0 0 0 0 0 0 0 0 0 0 0 0 0 0 0 0 0 0 0 0 0 0 0 0 0 0 0 0 0 0 0 0 0 0 0 0 0 0 0 0 0 0 0 0 0 0 0 0 0 0 0 0 0 0 0 0 0 0 0 0 0 0 0 0 0 0 0 0 0 0 0 0 0 0 0 0 0 0 0 0 0 0 0 0 0 0 0 0 0 0 0 0 0 0 0 0 0 0 0 0 0 0 0 0 0 0 0 0 0 0 0 0 0 0 0 0 0 0 0 0 0 0 0 0 0 0 0 0 0 0 0 0 0 0 0 0 0 0 0 0 0 0 0 0 0 0 0 0 0 0 0 0 0 0 0 0 0 0 0 0 0 0 0 0 0 0 0 0 0 0 0 0 0 0 0 0 0 0 0 0 0 0 0 0 0 0 0 0 0 0 0 0 0 0 0 0 0 0 0 0 0 0 0 0 0 0 0 0 0 0 0 0 0 0 0 0 0 0 0 0 0 0 0 0 0 0 0 0 0 0 0 0 0 0 0 0 0 0 0 0 0 0 0 0 0 0 0 0 0 0 0 0 0 0 0 0 0 0 0 0 0 0 0 0 0 0 0 0 0 0 0 0 0 0 0 0 0 0 0 0 0 0 0 0 0 0 0 0 0 0 0 0 0 0 0 0 0 0 0 0 0 0 0 0 0 0 0 0 0 0 0 0 0 0 0 0 0 0 0 0 0 0 0 0 0 0 0 0 0 0 0 0 0 0 0 0 0 0 0 0 0 0 0 0 0 0 0 0 0 0 0 0 0 0 0 0 0 0 0 0 0 0 0 0 0 0 0 0 0 0 0 0 0 0 0 0 0 0 0 0 0 0 0 0 0 0 0 0 0 0 0 0 0 0 0 0 0 0 0 0 0 0 0 0 0 0 0 0 0 0 0 0 0 0 0 0 0 0 0 0 0 0 0 0 0 0 0 0 0 0 0 0 0 0 0 0 0 0 0 0 0 0 0 0 0 0 0 0 0 0 0 0 0 0 0 0 0 0 0 0 0 0 0 0 0 0 0 0 0 0 0 0 0 0 0 0 0 0 0 0 0 0 0 0 0 0 0 0 0 0 0 0 0 0 0 0 0 0 0 0 0 0 0 0 0 0 0 0 0 0 0 0 0 0 0 0 0 0 0 0 0 0 0 0 0 0 0 0 0 0 0 0 0 0 0 0 0 0 0 0 0 0 0 0 0 0 0 0 0 0 0 0 0 0 0 0 0 0 0 0 0 0 0 0 0 0 0 0 0 0 0 0 0 0 0 0 0 0 0 0 0 0 0 0 0 0 0 0 0 0 0 0 0 0 0 0 0 0 0 0 0 0 0 0 0 0 0 0 0 0 0 0 0 0 0 0 0 0 0 0 0 0 0 0 0 0 0 0 0 0 0 0 0 0 0 0 0 0 0 0 0 0 0 0 0 0 0 0 0 0 0 0 0 0 0 0 0 0 0 0 0 0 0 0 0 0 0 0 0 0 0 0 0 0 0 0 0 0 0 0 0 0 0 0 0 0 0 0 0 0 0 0 0 0 0 0 0 0 0 0 0 0 0 0 0 0 0 0 0 0 0 0 0 0 0 0 0 0 0 0 0 0 0 0 0 0 0 0 0 0 0 0 0 0 0 0 0 0 0 0 0 0 0 0 0 0 0 0 0 0 0 0 0 0 0 0 0 0 0 0 0 0 0 0 0 0 0 0 0 0 0 0 0 0 0 0 0 0 0 0 0 0 0 0 0 0 0 0 0 0 0 0 0 0 0 0 0 0 0 0 0 0 0 0 0 0 0 0 0 0 0 0 0 0 0 0 0 0 0 0 0 0 0 0 0 0 0 0 0 0 0 0 0 0 0 0 0 0 0 0 0 0 0 0 0 0 0 0 0 0 0 0 0 0 0 0 0 0 0 0 0 0 0 0 0 0 0 0 0 0 0 0 0 0 0 0 0 0 0 0 0 0 0 0 0 0 0 0 0 0 0 0 0 0 0 0 0 0 0 0 0 0 0 0 0 0 0 0 0 0 0 0 0 0 0 0 0 0 0 0 0 0 0 0 0 0 0 0 0 0 0 0 0 0 0 0 0 0 0 0 0 0 0 0 0 0 0 0 0 0 0 0 0 0 0 0 0 0 0 0 0 0 0 0 0 0 0 0 0 0 0 0 0 0 0 0 0 0 0 0 0 0 0 0 0 0 0 0 0 0 0 0 0 0 0 0 0 0 0 0 0 0 0 0 0 0 0 0 0 0 0 0 0 0 0 0 0 0 0 0 0 0 0 0 0 0 0 0 0 0 0 0 0 0 0 0 0 0 0 0 0 0 0 0 0 0 0 0 0 0 0 0 0 0 0 0 0 0 0 0 0 0 0 0 0 0 0 0 0 0 0 0 0 0 0 0 0 0 0 0 0 0 0 0 0 0 0 0 0 0 0 0 0 0 0 0 0 0 0 0 0 0 0 0 0 0 0 0 0 0 0 0 0 0 0 0 0 0 0 0 0 0 0 0 0 0 0 0 0 0 0 0 0 0 0 0 0 0 0 0 0 0 0 0 0 0 0 0 0 0 0 0 0 0 0 0 0 0 0 0 0 0 0 0 0 0 0 0 0 0 0 0 0 0 0 0 0 0 0 0 0 0 0 0 0 0 0 0 0 0 0 0 0 0 0 0 0 0 0 0 0 0 0 0 0 0 0 0 0 0 0 0 0 0 0 0 0 0 0 0 0 0 0 0 0 0 0 0 0 0 0 0 0 0 0 0 0 0 0 0 0 0 0 0 0 0 0 0 0 0 0 0 0 0 0 0 0 0 0 0 0 0 0 0 0 0 0 0 0 0 0 0 0 0 0 0 0 0 0 0 0 0 0 0 0 0 0 0 0 0 0 0 0 0 0 0 0 0 0 0 0 0 0 0 0 0 0 0 0 0 0 0 0 0 0 0 0 0 0 0 0 0 0 0 0 0 0 0 0 0 0 0 0 0 0 0 0 0 0 0 0 0 0 0 0 0 0 0 0 0 0 0 0 0 0 0 0 0 0 0 0 0 0 0 0 0 0 0 0 0 0 0 0 0 0 0 0 0 0 0 0 0 0 0 0 0 0 0 0 0 0 0 0 0 0 0 0 0 0 0 0 0 0 0 0 0 0 0 0 0 0 0 0 0 0 0 0 0 0 0 0 0 0 0 0 0 0 0 0 0 0 0 0 0 0 0 0 0 0 0 0 0 0 0 0 0 0 0 0 0 0 0 0 0 0 0 0 0 0 0 0 0 0 0 0 0 0 0 0 0 0 0 0 0 0 0 0 0 0 0 0 0 0 0 0 0 0 0 0 0 0 0 0 0 0 0 0 0 0 0 0 0 0 0 0 0 0 0 0 0 0 0 0 0 0 0 0 0 0 0 0 0 0 0 0 0 0 0 0 0 0 0 0 0 0 0 0 0 0 0 0 0 0 0 0 0 0 0 0 0 0 0 0 0 0 0 0 0 0 0 0 0 0 0 0 0 0 0 0 0 0 0 0 0 0 0 0 0 0 0 0 0 0 0 0 0 0 0 0 0 0 0 0 0 0 0 0 0 0 0 0 0 0 0 0 0 0 0 0 0 0 0 0 0 0 0 0 0 0 0 0 0 0 0 0 0 0 0 0 0 0 0 0 0 0 0 0 0 0 0 0 0 0 0 0 0 0 0 0 0 0 0 0 0 0 0 0 0 0 0 0 0 0 0 0 0 0 0 0 0 0 0 0 0 0 0 0 0 0 0 0 0 0 0 0 0 0 0 0 0 0 0 0 0 0 0 0 0 0 0 0 0 0 0 0 0 0 0 0 0 0 0 0 0 0 0 0 0 0 0 0 0 0 0 0 0 0 0 0 0 0 0 0 0 0 0 0 0 0 0 0 0 0 0 0 0 0 0 0 0 0 0 0 0 0 0 0 0 0 0 0 0 0 0 0 0 0 0 0 0 0 0 0 0 0 0 0 0 0 0 0 0 0 0 0 0 0 0 0 0 0 0 0 0 0 0 0 0 0 0 0 0 0 0 0 0 0 0 0 0 0 0 0 0 0 0 0 0 0 0 0 0 0 0 0 0 0 0 0 0 0 0 0 0 0 0 0 0 0 0 0 0 0 0 0 0 0 0 0 0 0 0 0 0 0 0 0 0 0 0 0 0 0 0 0 0 0 0 0 0 0 0 0 0 0 0 0 0 0 0 0 0 0 0 0 0 0 0 0 0 0 0 0 0 0 0 0 0 0 0 0 0 0 0 0 0 0 0 0 0 0 0 0 0 0 0 0 0 0 0 0 0 0 0 0 0 0 0 0 0 0 0 0 0 0 0 0 0 0 0 0 0 0 0 0 0 0 0 0 0 0 0 0 0 0 0 0 0 0 0 0 0 0 0 0 0 0 0 0 0 0 0 0 0 0 0 0 0 0 0 0 0 0 0 0 0 0 0 0 0 0 0 0 0 0 0 0 0 0 0 0 0 0 0 0 0 0 0 0 0 0 0 0 0 0 0 0 0 0 0 0 0 0 0 0 0 0 0 0 0 0 0 0 0 0 0 0 0 0 0 0 0 0 0 0 0 0 0 0 0 0 0 0 0 0 0 0 0 0 0 0 0 0 0 0 0 0 0 0 0 0 0 0 0 0 0 0 0 0 0 0 0 0 0 0 0 0 0 0 0 0 0 0 0 0 0 0 0 0 0 0 0 0 0 0 0 0 0 0 0 0 0 0 0 0 0 0 0 0 0 0 0 0 0 0 0 0 0 0 0 0 0 0 0 0 0 0 0 0 0 0 0 0 0 0 0 0 0 0 0 0 0 0 0 0 0 0 0 0 0 0 0 0 0 0 0 0 0 0 0 0 0 0 0 0 0 0 0 0 0 0 0 0 0 0 0 0 0 0 0 0 0 0 0 0 0 0 0 0 0 0 0 0 0 0 0 0 0 0 0 0 0 0 0 0 0 0 0 0 0 0 0 0 0 0 0 0 0 0 0 0 0 0 0 0 0 0 0 0 0 0 0 0 0 0 0 0 0 0 0 0 0 0 0 0 0 0 0 0 0 0 0 0 0 0 0 0 0 0 0 0 0 0 0 0 0 0 0 0 0 0 0 0 0 0 0 0 0 0 0 0 0 0 0 0 0 0 0 0 0 0 0 0 0 0 0 0 0 0 0 0 0 0 0 0 0 0 0 0 0 0 0 0 0 0 0 0 0 0 0 0 0 0 0 0 0 0 0 0 0 0 0 0 0 0 0 0 0 0 0 0 0 0 0 0 0 0 0 0 0 0 0 0 0 0 0 0 0 0 0 0 0 0 0 0 0 0 0 0 0 0 0 0 0 0 0 0 0 0 0 0 0 0 0 0 0 0 0 0 0 0 0 0 0 0 0 0 0 0 0 0 0 0 0 0 0 0 0 0 0 0 0 0 0 0 0 0 0 0 0 0 0 0 0 0 0 0 0 0 0 0 0 0 0 0 0 0 0 0 0 0 0 0 0 0 0 0 0 0 0 0 0 0 0 0 0 0 0 0 0 0 0 0 0 0 0 0 0 0 0 0 0 0 0 0 0 0 0 0 0 0 0 0 0 0 0 0 0 0 0 0 0 0 0 0 0 0 0 0 0 0 0 0 0 0 0 0 0 0 0 0 0 0 0 0 0 0 0 0 0 0 0 0 0 0 0 0 0 0 0 0 0 0 0 0 0 0 0 0 0 0 0 0 0 0 0 0 0 0 0 0 0 0 0 0 0 0 0 0 0 0 0 0 0 0 0 0 0 0 0 0 0 0 0 0 0 0 0 0 0 0 0 0 0 0 0 0 0 0 0 0 0 0 0 0 0 0 0 0 0 0 0 0 0 0 0 0 0 0 0 0 0 0 0 0 0 0 0 0 0 0 0 0 0 0 0 0 0 0 0 0 0 0 0 0 0 0 0 0 0 0 0 0 0 0 0 0 0 0 0 0 0 0 0 0 0 0 0 0 0 0 0 0 0 0 0 0 0 0 0 0 0 0 0 0 0 0 0 0 0 0 0 0 0 0 0 0 0 0 0 0 0 0 0 0 0 0 0 0 0 0 0 0 0 0 0 0 0 0 0 0 0 0 0 0 0 0 0 0 0 0 0 0 0 0 0 0 0 0 0 0 0 0 0 0 0 0 0 0 0 0 0 0 0 0 0 0 0 0 0 0 0 0 0 0 0 0 0 0 0 0 0 0 0 0 0 0 0 0 0 0 0 0 0 0 0 0 0 0 0 0 0 0 0 0 0 0 0 0 0 0 0 0 0 0 0 0 0 0 0 0 0 0 0 0 0 0 0 0 0 0 0 0 0 0 0 0 0 0 0 0 0 0 0 0 0 0 0 0 0 0 0 0 0 0 0 0 0 0 0 0 0 0 0 0 0 0 0 0 0 0 0 0 0 0 0 0 0 0 0 0 0 0 0 0 0 0 0 0 0 0 0 0 0 0 0 0 0 0 0 0 0 0 0 0 0 0 0 0 0 0 0 0 0 0 0 0 0 0 0 0 0 0 0 0 0 0 0 0 0 0 0 0 0 0 0 0 0 0 0 0 0 0 0 0 0 0 0 0 0 0 0 0 0 0 0 0 0 0 0 0 0 0 0 0 0 0 0 0 0 0 0 0 0 0 0 0 0 0 0 0 0 0 0 0 0 0 0 0 0 0 0 0 0 0 0 0 0 0 0 0 0 0 0 0 0 0 0 0 0 0 0 0 0 0 0 0 0 0 0 0 0 0 0 0 0 0 0 0 0 0 0 0 0 0 0 0 0 0 0 0 0 0 0 0 0 0 0 0 0 0 0 0 0 0 0 0 0 0 0 0 0 0 0 0 0 0 0 0 0 0 0 0 0 0 0 0 0 0 0 0 0 0 0 0 0 0 0 0 0 0 0 0 0 0 0 0 0 0 0 0 0 0 0 0 0 0 0 0 0 0 0 0 0 0 0 0 0 0 0 0 0 0 0 0 0 0 0 0 0 0 0 0 0 0 0 0 0 0 0 0 0 0 0 0 0 0 0 0 0 0 0 0 0 0 0 0 0 0 0 0 0 0 0 0 0 0 0 0 0 0 0 0 0 0 0 0 0 0 0 0 0 0 0 0 0 0 0 0 0 0 0 0 0 0 0 0 0 0 0 0 0 0 0 0 0 0 0 0 0 0 0 0 0 0 0 0 0 0 0 0 0 0 0 0 0 0 0 0 0 0 0 0 0 0 0 0 0 0 0 0 0 0 0 0 0 0 0 0 0 0 0 0 0 0 0 0 0 0 0 0 0 0 0 0 0 0 0 0 0 0 0 0 0 0 0 0 0 0 0 0 0 0 0 0 0 0 0 0 0 0 0 0 0 0 0 0 0 0 0 0 0 0 0 0 0 0 0 0 0 0 0 0 0 0 0 0 0 0 0 0 0 0 0 0 0 0 0 0 0 0 0 0 0 0 0 0 0 0 0 0 0 0 0 0 0 0 0 0 0 0 0 0 0 0 0 0 0 0 0 0 0 0 0 0 0 0 0 0 0 0 0 0 0 0 0 0 0 0 0 0 0 0 0 0 0 0 0 0 0 0 0 0 0 0 0 0 0 0 0 0 0 0 0 0 0 0 0 0 0 0 0 0 0 0 0 0 0 0 0 0 0 0 0 0 0 0 0 0 0 0 0 0 0 0 0 0 0 0 0 0 0 0 0 0 0 0 0 0 0 0 0 0 0 0 0 0 0 0 0 0 0 0 0 0 0 0 0 0 0 0 0 0 0 0 0 0 0 0 0 0 0 0 0 0 0 0 0 0 0 0 0 0 0 0 0 0 0 0 0 0 0 0 0 0 0 0 0 0 0 0 0 0 0 0 0 0 0 0 0 0 0 0 0 0 0 0 0 0 0 0 0 0 0 0 0 0 0 0 0 0 0 0 0 0 0 0 0 0 0 0 0 0 0 0 0 0 0 0 0 0 0 0 0 0 0 0 0 0 0 0 0 0 0 0 0 0 0 0 0 0 0 0 0 0 0 0 0 0 0 0 0 0 0 0 0 0 0 0 0 0 0 0 0 0 0 0 0 0 0 0 0 0 0 0 0 0 0 0 0 0 0 0 0 0 0 0 0 0 0 0 0 0 0 0 0 0 0 0 0 0 0 0 0 0 0 0 0 0 0 0 0 0 0 0 0 0 0 0 0 0 0 0 0 0 0 0 0 0 0 0 0 0 0 0 0 0 0 0 0 0 0 0 0 0 0 0 0 0 0 0 0 0 0 0 0 0 0 0 0 0 0 0 0 0 0 0 0 0 0 0 0 0 0 0 0 0 0 0 0 0 0 0 0 0 0 0 0 0 0 0 0 0 0 0 0 0 0 0 0 0 0 0 0 0 0 0 0 0 0 0 0 0 0 0 0 0 0 0 0 0 0 0 0 0 0 0 0 0 0 0 0 0 0 0 0 0 0 0 0 0 0 0 0 0 0 0 0 0 0 0 0 0 0 0 0 0 0 0 0 0 0 0 0 0 0 0 0 0 0 0 0 0 0 0 0 0 0 0 0 0 0 0 0 0 0 0 0 0 0 0 0 0 0 0 0 0 0 0 0 0 0 0 0 0 0 0 0 0 0 0 0 0 0 0 0 0 0 0 0 0 0 0 0 0 0 0 0 0 0 0 0 0 0 0 0 0 0 0 0 0 0 0 0 0 0 0 0 0 0 0 0 0 0 0 0 0 0 0 0 0 0 0 0 0 0 0 0 0 0 0 0 0 0 0 0 0 0 0 0 0 0 0 0 0 0 0 0 0 0 0 0 0 0 0 0 0 0 0 0 0 0 0 0 0 0 0 0 0 0 0 0 0 0 0 0 0 0 0 0 0 0 0 0 0 0 0 0 0 0 0 0 0 0 0 0 0 0 0 0 0 0 0 0 0 0 0 0 0 0 0 0 0 0 0 0 0 0 0 0 0 0 0 0 0 0 0 0 0 0 0 0 0 0 0 0 0 0 0 0 0 0 0 0 0 0 0 0 0 0 0 0 0 0 0 0 0 0 0 0 0 0 0 0 0 0 0 0 0 0 0 0 0 0 0 0 0 0 0 0 0 0 0 0 0 0 0 0 0 0 0 0 0 0 0 0 0 0 0 0 0 0 0 0 0 0 0 0 0 0 0 0 0 0 0 0 0 0 0 0 0 0 0 0 0 0 0 0 0 0 0 0 0 0 0 0 0 0 0 0 0 0 0 0 0 0 0 0 0 0 0 0 0 0 0 0 0 0 0 0 0 0 0 0 0 0 0 0 0 0 0 0 0 0 0 0 0 0 0 0 0 0 0 0 0 0 0 0 0 0 0 0 0 0 0 0 0 0 0 0 0 0 0 0 0 0 0 0 0 0 0 0 0 0 0 0 0 0 0 0 0 0 0 0 0 0 0 0 0 0 0 0 0 0 0 0 0 0 0 0 0 0 0 0 0 0 0 0 0 0 0 0 0 0 0 0 0 0 0 0 0 0 0 0 0 0 0 0 0 0 0 0 0 0 0 0 0 0 0 0 0 0 0 0 0 0 0 0 0 0 0 0 0 0 0 0 0 0 0 0 0 0 0 0 0 0 0 0 0 0 0 0 0 0 0 0 0 0 0 0 0 0 0 0 0 0 0 0 0 0 0 0 0 0 0 0 0 0 0 0 0 0 0 0 0 0 0 0 0 0 0 0 0 0 0 0 0 0 0 0 0 0 0 0 0 0 0 0 0 0 0 0 0 0 0 0 0 0 0 0 0 0 0 0 0 0 0 0 0 0 0 0 0 0 0 0 0 0 0 0 0 0 0 0 0 0 0 0 0 0 0 0 0 0 0 0 0 0 0 0 0 0 0 0 0 0 0 0 0 0 0 0 0 0 0 0 0 0 0 0 0 0 0 0 0 0 0 0 0 0 0 0 0 0 0 0 0 0 0 0 0 0 0 0 0 0 0 0 0 0 0 0 0 0 0 0 0 0 0 0 0 0 0 0 0 0 0 0 0 0 0 0 0 0 0 0 0 0 0 0 0 0 0 0 0 0 0 0 0 0 0 0 0 0 0 0 0 0 0 0 0 0 0 0 0 0 0 0 0 0 0 0 0 0 0 0 0 0 0 0 0 0 0 0 0 0 0 0 0 0 0 0 0 0 0 0 0 0 0 0 0 0 0 0 0 0 0 0 0 0 0 0 0 0 0 0 0 0 0 0 0 0 0 0 0 0 0 0 0 0 0 0 0 0 0 0 0 0 0 0 0 0 0 0 0 0 0 0 0 0 0 0 0 0 0 0 0 0 0 0 0 0 0 0 0 0 0 0 0 0 0 0 0 0 0 0 0 0 0 0 0 0 0 0 0 0 0 0 0 0 0 0 0 0 0 0 0 0 0 0 0 0 0 0 0 0 0 0 0 0 0 0 0 0 0 0 0 0 0 0 0 0 0 0 0 0 0 0 0 0 0 0 0 0 0 0 0 0 0 0 0 0 0 0 0 0 0 0 0 0 0 0 0 0 0 0 0 0 0 0 0 0 0 0 0 0 0 0 0 0 0 0 0 0 0 0 0 0 0 0 0 0 0 0 0 0 0 0 0 0 0 0 0 0 0 0 0 0 0 0 0 0 0 0 0 0 0 0 0 0 0 0 0 0 0 0 0 0 0 0 0 0 0 0 0 0 0 0 0 0 0 0 0 0 0 0 0 0 0 0 0 0 0 0 0 0 0 0 0 0 0 0 0 0 0 0 0 0 0 0 0 0 0 0 0 0 0 0 0 0 0 0 0 0 0 0 0 0 0 0 0 0 0 0 0 0 0 0 0 0 0 0 0 0 0 0 0 0 0 0 0 0 0 0 0 0 0 0 0 0 0 0 0 0 0 0 0 0 0 0 0 0 0 0 0 0 0 0 0 0 0 0 0 0 0 0 0 0 0 0 0 0 0 0 0 0 0 0 0 0 0 0 0 0 0 0 0 0 0 0 0 0 0 0 0 0 0 0 0 0 0 0 0 0 0 0 0 0 0 0 0 0 0 0 0 0 0 0 0 0 0 0 0 0 0 0 0 0 0 0 0 0 0 0 0 0 0 0 0 0 0 0 0 0 0 0 0 0 0 0 0 0 0 0 0 0 0 0 0 0 0 0 0 0 0 0 0 0 0 0 0 0 0 0 0 0 0 0 0 0 0 0 0 0 0 0 0 0 0 0 0 0 0 0 0 0 0 0 0 0 0 0 0 0 0 0 0 0 0 0 0 0 0 0 0 0 0 0 0 0 0 0 0 0 0 0 0 0 0 0 0 0 0 0 0 0 0 0 0 0 0 0 0 0 0 0 0 0 0 0 0 0 0 0 0 0 0 0 0 0 0 0 0 0 0 0 0 0 0 0 0 0 0 0 0 0 0 0 0 0 0 0 0 0 0 0 0 0 0 0 0 0 0 0 0 0 0 0 0 0 0 0 0 0 0 0 0 0 0 0 0 0 0 0 0 0 0 0 0 0 0 0 0 0 0 0 0 0 0 0 0 0 0 0 0 0 0 0 0 0 0 0 0 0 0 0 0 0 0 0 0 0 0 0 0 0 0 0 0 0 0 0 0 0 0 0 0 0 0 0 0 0 0 0 0 0 0 0 0 0 0 0 0 0 0 0 0 0 0 0 0 0 0 0 0 0 0 0 0 0 0 0 0 0 0 0 0 0 0 0 0 0 0 0 0 0 0 0 0 0 0 0 0 0 0 0 0 0 0 0 0 0 0 0 0 0 0 0 0 0 0 0 0 0 0 0 0 0 0 0 0 0 0 0 0 0 0 0 0 0 0 0 0 0 0 0 0 0 0 0 0 0 0 0 0 0 0 0 0 0 0 0 0 0 0 0 0 0 0 0 0 0 0 0 0 0 0 0 0 0 0 0 0 0 0 0 0 0 0 0 0 0 0 0 0 0 0 0 0 0 0 0 0 0 0 0 0 0 0 0 0 0 0 0 0 0 0 0 0 0 0 0 0 0 0 0 0 0 0 0 0 0 0 0 0 0 0 0 0 0 0 0 0 0 0 0 0 0 0 0 0 0 0 0 0 0 0 0 0 0 0 0 0 0 0 0 0 0 0 0 0 0 0 0 0 0 0 0 0 0 0 0 0 0 0 0 0 0 0 0 0 0 0 0 0 0 0 0 0 0 0 0 0 0 0 0 0 0 0 0 0 0 0 0 0 0 0 0 0 0 0 0 0 0 0 0 0 0 0 0 0 0 0 0 0 0 0 0 0 0 0 0 0 0 0 0 0 0 0 0 0 0 0 0 0 0 0 0 0 0 0 0 0 0 0 0 0 0 0 0 0 0 0 0 0 0 0 0 0 0 0 0 0 0 0 0 0 0 0 0 0 0 0 0 0 0 0 0 0 0 0 0 0 0 0 0 0 0 0 0 0 0 0 0 0 0 0 0 0 0 0 0 0 0 0 0 0 0 0 0 0 0 0 0 0 0 0 0 0 0 0 0 0 0 0 0 0 0 0 0 0 0 0 0 0 0 0 0 0 0 0 0 0 0 0 0 0 0 0 0 0 0 0 0 0 0 0 0 0 0 0 0 0 0 0 0 0 0 0 0 0 0 0 0 0 0 0 0 0 0 0 0 0 0 0 0 0 0 0 0 0 0 0 0 0 0 0 0 0 0 0 0 0 0 0 0 0 0 0 0 0 0 0 0 0 0 0 0 0 0 0 0 0 0 0 0 0 0 0 0 0 0 0 0 0 0 0 0 0 0 0 0 0 0 0 0 0 0 0 0 0 0 0 0 0 0 0 0 0 0 0 0 0 0 0 0 0 0 0 0 0 0 0 0 0 0 0 0 0 0 0 0 0 0 0 0 0 0 0 0 0 0 0 0 0 0 0 0 0 0 0 0 0 0 0 0 0 0 0 0 0 0 0 0 0 0 0 0 0 0 0 0 0 0 0 0 0 0 0 0 0 0 0 0 0 0 0 0 0 0 0 0 0 0 0 0 0 0 0 0 0 0 0 0 0 0 0 0 0 0 0 0 0 0 0 0 0 0 0 0 0 0 0 0 0 0 0 0 0 0 0 0 0 0 0 0 0 0 0 0 0 0 0 0 0 0 0 0 0 0 0 0 0 0 0 0 0 0 0 0 0 0 0 0 0 0 0 0 0
</DataArray>

      </PointData>
      <CellData Scalars="Bingham"  Vectors="GAMMADOT" ><DataArray Name="Bingham" type="Float32" format="ascii" >
 5 5 5 5 5 5 5 5 5 5 5 5 5 5 5 5 5 5 5 5 5 5 5 5 5 5 5 5 5 5 5 5 5 5 5 5 5 5 5 5 5 5 5 5 5 5 5 5 5 5 5 5 5 5 5 5 5 5 5 5 5 5 5 5 5 5 5 5 5 5 5 5 5 5 5 5 5 5 5 5 5 5 5 5 5 5 5 5 5 5 5 5 5 5 5 5 5 5 5 5 5 5 5 5 5 5 5 5 5 5 5 5 5 5 5 5 5 5 5 5 5 5 5 5 5 5 5 5 5 5 5 5 5 5 5 5 5 5 5 5 5 5 5 5 5 5 5 5 5 5 5 5 5 5 5 5 5 5 5 5 5 5 5 5 5 5 5 5 5 5 5 5 5 5 5 5 5 5 5 5 5 5 5 5 5 5 5 5 5 5 5 5 5 5 5 5 5 5 5 5 5 5 5 5 5 5 5 5 5 5 5 5 5 5 5 5 5 5 5 5 5 5 5 5 5 5 5 5 5 5 5 5 5 5 5 5 5 5 5 5 5 5 5 5 5 5 5 5 5 5 5 5 5 5 5 5 5 5 5 5 5 5 5 5 5 5 5 5 5 5 5 5 5 5 5 5 5 5 5 5 5 5 5 5 5 5 5 5 5 5 5 5 5 5 5 5 5 5 5 5 5 5 5 5 5 5 5 5 5 5 5 5 5 5 5 5 5 5 5 5 5 5 5 5 5 5 5 5 5 5 5 5 5 5 5 5 5 5 5 5 5 5 5 5 5 5 5 5 5 5 5 5 5 5 5 5 5 5 5 5 5 5 5 5 5 5 5 5 5 5 5 5 5 5 5 5 5 5 5 5 5 5 5 5 5 5 5 5 5 5 5 5 5 5 5 5 5 5 5 5 5 5 5 5 5 5 5 5 5 5 5 5 5 5 5 5 5 5 5 5 5 5 5 5 5 5 5 5 5 5 5 5 5 5 5 5 5 5 5 5 5 5 5 5 5 5 5 5 5 5 5 5 5 5 5 5 5 5 5 5 5 5 5 5 5 5 5 5 5 5 5 5 5 5 5 5 5 5 5 5 5 5 5 5 5 5 5 5 5 5 5 5 5 5 5 5 5 5 5 5 5 5 5 5 5 5 5 5 5 5 5 5 5 5 5 5 5 5 5 5 5 5 5 5 5 5 5 5 5 5 5 5 5 5 5 5 5 5 5 5 5 5 5 5 5 5 5 5 5 5 5 5 5 5 5 5 5 5 5 5 5 5 5 5 5 5 5 5 5 5 5 5 5 5 5 5 5 5 5 5 5 5 5 5 5 5 5 5 5 5 5 5 5 5 5 5 5 5 5 5 5 5 5 5 5 5 5 5 5 5 5 5 5 5 5 5 5 5 5 5 5 5 5 5 5 5 5 5 5 5 5 5 5 5 5 5 5 5 5 5 5 5 5 5 5 5 5 5 5 5 5 5 5 5 5 5 5 5 5 5 5 5 5 5 5 5 5 5 5 5 5 5 5 5 5 5 5 5 5 5 5 5 5 5 5 5 5 5 5 5 5 5 5 5 5 5 5 5 5 5 5 5 5 5 5 5 5 5 5 5 5 5 5 5 5 5 5 5 5 5 5 5 5 5 5 5 5 5 5 5 5 5 5 5 5 5 5 5 5 5 5 5 5 5 5 5 5 5 5 5 5 5 5 5 5 5 5 5 5 5 5 5 5 5 5 5 5 5 5 5 5 5 5 5 5 5 5 5 5 5 5 5 5 5 5 5 5 5 5 5 5 5 5 5 5 5 5 5 5 5 5 5 5 5 5 5 5 5 5 5 5 5 5 5 5 5 5 5 5 5 5 5 5 5 5 5 5 5 5 5 5 5 5 5 5 5 5 5 5 5 5 5 5 5 5 5 5 5 5 5 5 5 5 5 5 5 5 5 5 5 5 5 5 5 5 5 5 5 5 5 5 5 5 5 5 5 5 5 5 5 5 5 5 5 5 5 5 5 5 5 5 5 5 5 5 5 5 5 5 5 5 5 5 5 5 5 5 5 5 5 5 5 5 5 5 5 5 5 5 5 5 5 5 5 5 5 5 5 5 5 5 5 5 5 5 5 5 5 5 5 5 5 5 5 5 5 5 5 5 5 5 5 5 5 5 5 5 5 5 5 5 5 5 5 5 5 5 5 5 5 5 5 5 5 5 5 5 5 5 5 5 5 5 5 5 5 5 5 5 5 5 5 5 5 5 5 5 5 5 5 5 5 5 5 5 5 5 5 5 5 5 5 5 5 5 5 5 5 5 5 5 5 5 5 5 5 5 5 5 5 5 5 5 5 5 5 5 5 5 5 5 5 5 5 5 5 5 5 5 5 5 5 5 5 5 5 5 5 5 5 5 5 5 5 5 5 5 5 5 5 5 5 5 5 5 5 5 5 5 5 5 5 5 5 5 5 5 5 5 5 5 5 5 5 5 5 5 5 5 5 5 5 5 5 5 5 5 5 5 5 5 5 5 5 5 5 5 5 5 5 5 5 5 5 5 5 5 5 5 5 5 5 5 5 5 5 5 5 5 5 5 5 5 5 5 5 5 5 5 5 5 5 5 5 5 5 5 5 5 5 5 5 5 5 5 5 5 5 5 5 5 5 5 5 5 5 5 5 5 5 5 5 5 5 5 5 5 5 5 5 5 5 5 5 5 5 5 5 5 5 5 5 5 5 5 5 5 5 5 5 5 5 5 5 5 5 5 5 5 5 5 5 5 5 5 5 5 5 5 5 5 5 5 5 5 5 5 5 5 5 5 5 5 5 5 5 5 5 5 5 5 5 5 5 5 5 5 5 5 5 5 5 5 5 5 5 5 5 5 5 5 5 5 5 5 5 5 5 5 5 5 5 5 5 5 5 5 5 5 5 5 5 5 5 5 5 5 5 5 5 5 5 5 5 5 5 5 5 5 5 5 5 5 5 5 5 5 5 5 5 5 5 5 5 5 5 5 5 5 5 5 5 5 5 5 5 5 5 5 5 5 5 5 5 5 5 5 5 5 5 5 5 5 5 5 5 5 5 5 5 5 5 5 5 5 5 5 5 5 5 5 5 5 5 5 5 5 5 5 5 5 5 5 5 5 5 5 5 5 5 5 5 5 5 5 5 5 5 5 5 5 5 5 5 5 5 5 5 5 5 5 5 5 5 5 5 5 5 5 5 5 5 5 5 5 5 5 5 5 5 5 5 5 5 5 5 5 5 5 5 5 5 5 5 5 5 5 5 5 5 5 5 5 5 5 5 5 5 5 5 5 5 5 5 5 5 5 5 5 5 5 5 5 5 5 5 5 5 5 5 5 5 5 5 5 5 5 5 5 5 5 5 5 5 5 5 5 5 5 5 5 5 5 5 5 5 5 5 5 5 5 5 5 5 5 5 5 5 5 5 5 5 5 5 5 5 5 5 5 5 5 5 5 5 5 5 5 5 5 5 5 5 5 5 5 5 5 5 5 5 5 5 5 5 5 5 5 5 5 5 5 5 5 5 5 5 5 5 5 5 5 5 5 5 5 5 5 5 5 5 5 5 5 5 5 5 5 5 5 5 5 5 5 5 5 5 5 5 5 5 5 5 5 5 5 5 5 5 5 5 5 5 5 5 5 5 5 5 5 5 5 5 5 5 5 5 5 5 5 5 5 5 5 5 5 5 5 5 5 5 5 5 5 5 5 5 5 5 5 5 5 5 5 5 5 5 5 5 5 5 5 5 5 5 5 5 5 5 5 5 5 5 5 5 5 5 5 5 5 5 5 5 5 5 5 5 5 5 5 5 5 5 5 5 5 5 5 5 5 5 5 5 5 5 5 5 5 5 5 5 5 5 5 5 5 5 5 5 5 5 5 5 5 5 5 5 5 5 5 5 5 5 5 5 5 5 5 5 5 5 5 5 5 5 5 5 5 5 5 5 5 5 5 5 5 5 5 5 5 5 5 5 5 5 5 5 5 5 5 5 5 5 5 5 5 5 5 5 5 5 5 5 5 5 5 5 5 5 5 5 5 5 5 5 5 5 5 5 5 5 5 5 5 5 5 5 5 5 5 5 5 5 5 5 5 5 5 5 5 5 5 5 5 5 5 5 5 5 5 5 5 5 5 5 5 5 5 5 5 5 5 5 5 5 5 5 5 5 5 5 5 5 5 5 5 5 5 5 5 5 5 5 5 5 5 5 5 5 5 5 5 5 5 5 5 5 5 5 5 5 5 5 5 5 5 5 5 5 5 5 5 5 5 5 5 5 5 5 5 5 5 5 5 5 5 5 5 5 5 5 5 5 5 5 5 5 5 5 5 5 5 5 5 5 5 5 5 5 5 5 5 5 5 5 5 5 5 5 5 5 5 5 5 5 5 5 5 5 5 5 5 5 5 5 5 5 5 5 5 5 5 5 5 5 5 5 5 5 5 5 5 5 5 5 5 5 5 5 5 5 5 5 5 5 5 5 5 5 5 5 5 5 5 5 5 5 5 5 5 5 5 5 5 5 5 5 5 5 5 5 5 5 5 5 5 5 5 5 5 5 5 5 5 5 5 5 5 5 5 5 5 5 5 5 5 5 5 5 5 5 5 5 5 5 5 5 5 5 5 5 5 5 5 5 5 5 5 5 5 5 5 5 5 5 5 5 5 5 5 5 5 5 5 5 5 5 5 5 5 5 5 5 5 5 5 5 5 5 5 5 5 5 5 5 5 5 5 5 5 5 5 5 5 5 5 5 5 5 5 5 5 5 5 5 5 5 5 5 5 5 5 5 5 5 5 5 5 5 5 5 5 5 5 5 5 5 5 5 5 5 5 5 5 5 5 5 5 5 5 5 5 5 5 5 5 5 5 5 5 5 5 5 5 5 5 5 5 5 5 5 5 5 5 5 5 5 5 5 5 5 5 5 5 5 5 5 5 5 5 5 5 5 5 5 5 5 5 5 5 5 5 5 5 5 5 5 5 5 5 5 5 5 5 5 5 5 5 5 5 5 5 5 5 5 5 5 5 5 5 5 5 5 5 5 5 5 5 5 5 5 5 5 5 5 5 5 5 5 5 5 5 5 5 5 5 5 5 5 5 5 5 5 5 5 5 5 5 5 5 5 5 5 5 5 5 5 5 5 5 5 5 5 5 5 5 5 5 5 5 5 5 5 5 5 5 5 5 5 5 5 5 5 5 5 5 5 5 5 5 5 5 5 5 5 5 5 5 5 5 5 5 5 5 5 5 5 5 5 5 5 5 5 5 5 5 5 5 5 5 5 5 5 5 5 5 5 5 5 5 5 5 5 5 5 5 5 5 5 5 5 5 5 5 5 5 5 5 5 5 5 5 5 5 5 5 5 5 5 5 5 5 5 5 5 5 5 5 5 5 5 5 5 5 5 5 5 5 5 5 5 5 5 5 5 5 5 5 5 5 5 5 5 5 5 5 5 5 5 5 5 5 5 5 5 5 5 5 5 5 5 5 5 5 5 5 5 5 5 5 5 5 5 5 5 5 5 5 5 5 5 5 5 5 5 5 5 5 5 5 5 5 5 5 5 5 5 5 5 5 5 5 5 5 5 5 5 5 5 5 5 5 5 5 5 5 5 5 5 5 5 5 5 5 5 5 5 5 5 5 5 5 5 5 5 5 5 5 5 5 5 5 5 5 5 5 5 5 5 5 5 5 5 5 5 5 5 5 5 5 5 5 5 5 5 5 5 5 5 5 5 5 5 5 5 5 5 5 5 5 5 5 5 5 5 5 5 5 5 5 5 5 5 5 5 5 5 5 5 5 5 5 5 5 5 5 5 5 5 5 5 5 5 5 5 5 5 5 5 5 5 5 5 5 5 5 5 5 5 5 5 5 5 5 5 5 5 5 5 5 5 5 5 5 5 5 5 5 5 5 5 5 5 5 5 5 5 5 5 5 5 5 5 5 5 5 5 5 5 5 5 5 5 5 5 5 5 5 5 5 5 5 5 5 5 5 5 5 5 5 5 5 5 5 5 5 5 5 5 5 5 5 5 5 5 5 5 5 5 5 5 5 5 5 5 5 5 5 5 5 5 5 5 5 5 5 5 5 5 5 5 5 5 5 5 5 5 5 5 5 5 5 5 5 5 5 5 5 5 5 5 5 5 5 5 5 5 5 5 5 5 5 5 5 5 5 5 5 5 5 5 5 5 5 5 5 5 5 5 5 5 5 5 5 5 5 5 5 5 5 5 5 5 5 5 5 5 5 5 5 5 5 5 5 5 5 5 5 5 5 5 5 5 5 5 5 5 5 5 5 5 5 5 5 5 5 5 5 5 5 5 5 5 5 5 5 5 5 5 5 5 5 5 5 5 5 5 5 5 5 5 5 5 5 5 5 5 5 5 5 5 5 5 5 5 5 5 5 5 5 5 5 5 5 5 5 5 5 5 5 5 5 5 5 5 5 5 5 5 5 5 5 5 5 5 5 5 5 5 5 5 5 5 5 5 5 5 5 5 5 5 5 5 5 5 5 5 5 5 5 5 5 5 5 5 5 5 5 5 5 5 5 5 5 5 5 5 5 5 5 5 5 5 5 5 5 5 5 5 5 5 5 5 5 5 5 5 5 5 5 5 5 5 5 5 5 5 5 5 5 5 5 5 5 5 5 5 5 5 5 5 5 5 5 5 5 5 5 5 5 5 5 5 5 5 5 5 5 5 5 5 5 5 5 5 5 5 5 5 5 5 5 5 5 5 5 5 5 5 5 5 5 5 5 5 5 5 5 5 5 5 5 5 5 5 5 5 5 5 5 5 5 5 5 5 5 5 5 5 5 5 5 5 5 5 5 5 5 5 5 5 5 5 5 5 5 5 5 5 5 5 5 5 5 5 5 5 5 5 5 5 5 5 5 5 5 5 5 5 5 5 5 5 5 5 5 5 5 5 5 5 5 5 5 5 5 5 5 5 5 5 5 5 5 5 5 5 5 5 5 5 5 5 5 5 5 5 5 5 5 5 5 5 5 5 5 5 5 5 5 5 5 5 5 5 5 5 5 5 5 5 5 5 5 5 5 5 5 5 5 5 5 5 5 5 5 5 5 5 5 5 5 5 5 5 5 5 5 5 5 5 5 5 5 5 5 5 5 5 5 5 5 5 5 5 5 5 5 5 5 5 5 5 5 5 5 5 5 5 5 5 5 5 5 5 5 5 5 5 5 5 5 5 5 5 5 5 5 5 5 5 5 5 5 5 5 5 5 5 5 5 5 5 5 5 5 5 5 5 5 5 5 5 5 5 5 5 5 5 5 5 5 5 5 5 5 5 5 5 5 5 5 5 5 5 5 5 5 5 5 5 5 5 5 5 5 5 5 5 5 5 5 5 5 5 5 5 5 5 5 5 5 5 5 5 5 5 5 5 5 5 5 5 5 5 5 5 5 5 5 5 5 5 5 5 5 5 5 5 5 5 5 5 5 5 5 5 5 5 5 5 5 5 5 5 5 5 5 5 5 5 5 5 5 5 5 5 5 5 5 5 5 5 5 5 5 5 5 5 5 5 5 5 5 5 5 5 5 5 5 5 5 5 5 5 5 5 5 5 5 5 5 5 5 5 5 5 5 5 5 5 5 5 5 5 5 5 5 5 5 5 5 5 5 5 5 5 5 5 5 5 5 5 5 5 5 5 5 5 5 5 5 5 5 5 5 5 5 5 5 5 5 5 5 5 5 5 5 5 5 5 5 5 5 5 5 5 5 5 5 5 5 5 5 5 5 5 5 5 5 5 5 5 5 5 5 5 5 5 5 5 5 5 5 5 5 5 5 5 5 5 5 5 5 5 5 5 5 5 5 5 5 5 5 5 5 5 5 5 5 5 5 5 5 5 5 5 5 5 5 5 5 5 5 5 5 5 5 5 5 5 5 5 5 5 5 5 5 5 5 5 5 5 5 5 5 5 5 5 5 5 5 5 5 5 5 5 5 5 5 5 5 5 5 5 5 5 5 5 5 5 5 5 5 5 5 5 5 5 5 5 5 5 5 5 5 5 5 5 5 5 5 5 5 5 5 5 5 5 5 5 5 5 5 5 5 5 5 5 5 5 5 5 5 5 5 5 5 5 5 5 5 5 5 5 5 5 5 5 5 5 5 5 5 5 5 5 5 5 5 5 5 5 5 5 5 5 5 5 5 5 5 5 5 5 5 5 5 5 5 5 5 5 5 5 5 5 5 5 5 5 5 5 5 5 5 5 5 5 5 5 5 5 5 5 5 5 5 5 5 5 5 5 5 5 5 5 5 5 5 5 5 5 5 5 5 5 5 5 5 5 5 5 5 5 5 5 5 5 5 5 5 5 5 5 5 5 5 5 5 5 5 5 5 5 5 5 5 5 5 5 5 5 5 5 5 5 5 5 5 5 5 5 5 5 5 5 5 5 5 5 5 5 5 5 5 5 5 5 5 5 5 5 5 5 5 5 5 5 5 5 5 5 5 5 5 5 5 5 5 5 5 5 5 5 5 5 5 5 5 5 5 5 5 5 5 5 5 5 5 5 5 5 5 5 5 5 5 5 5 5 5 5 5 5 5 5 5 5 5 5 5 5 5 5 5 5 5 5 5 5 5 5 5 5 5 5 5 5 5 5 5 5 5 5 5 5 5 5 5 5 5 5 5 5 5 5 5 5 5 5 5 5 5 5 5 5 5 5 5 5 5 5 5 5 5 5 5 5 5 5 5 5 5 5 5 5 5 5 5 5 5 5 5 5 5 5 5 5 5 5 5 5 5 5 5 5 5 5 5 5 5 5 5 5 5 5 5 5 5 5 5 5 5 5 5 5 5 5 5 5 5 5 5 5 5 5 5 5 5 5 5 5 5 5 5 5 5 5 5 5 5 5 5 5 5 5 5 5 5 5 5 5 5 5 5 5 5 5 5 5 5 5 5 5 5 5 5 5 5 5 5 5 5 5 5 5 5 5 5 5 5 5 5 5 5 5 5 5 5 5 5 5 5 5 5 5 5 5 5 5 5 5 5 5 5 5 5 5 5 5 5 5 5 5 5 5 5 5 5 5 5 5 5 5 5 5 5 5 5 5 5 5 5 5 5 5 5 5 5 5 5 5 5 5 5 5 5 5 5 5 5 5 5 5 5 5 5 5 5 5 5 5 5 5 5 5 5 5 5 5 5 5 5 5 5 5 5 5 5 5 5 5 5 5 5 5 5 5 5 5 5 5 5 5 5 5 5 5 5 5 5 5 5 5 5 5 5 5 5 5 5 5 5 5 5 5 5 5 5 5 5 5 5 5 5 5 5 5 5 5 5 5 5 5 5 5 5 5 5 5 5 5 5 5 5 5 5 5 5 5 5 5 5 5 5 5 5 5 5 5 5 5 5 5 5 5 5 5 5 5 5 5 5 5 5 5 5 5 5 5 5 5 5 5 5 5 5 5 5 5 5 5 5 5 5 5 5 5 5 5 5 5 5 5 5 5 5 5 5 5 5 5 5 5 5 5 5 5 5 5 5 5 5 5 5 5 5 5 5 5 5 5 5 5 5 5 5 5 5 5 5 5 5 5 5 5 5 5 5 5 5 5 5 5 5 5 5 5 5 5 5 5 5 5 5 5 5 5 5 5 5 5 5 5 5 5 5 5 5 5 5 5 5 5 5 5 5 5 5 5 5 5 5 5 5 5 5 5 5 5 5 5 5 5 5 5 5 5 5 5 5 5 5 5 5 5 5 5 5 5 5 5 5 5 5 5 5 5 5 5 5 5 5 5 5 5 5 5 5 5 5 5 5 5 5 5 5 5 5 5 5 5 5 5 5 5 5 5 5 5 5 5 5 5 5 5 5 5 5 5 5 5 5 5 5 5 5 5 5 5 5 5 5 5 5 5 5 5 5 5 5 5 5 5 5 5 5 5 5 5 5 5 5 5 5 5 5 5 5 5 5 5 5 5 5 5 5 5 5 5 5 5 5 5 5 5 5 5 5 5 5 5 5 5 5 5 5 5 5 5 5 5 5 5 5 5 5 5 5 5 5 5 5 5 5 5 5 5 5 5 5 5 5 5 5 5 5 5 5 5 5 5 5 5 5 5 5 5 5 5 5 5 5 5 5 5 5 5 5 5 5 5 5 5 5 5 5 5 5 5 5 5 5 5 5 5 5 5 5 5 5 5 5 5 5 5 5 5 5 5 5 5 5 5 5 5 5 5 5 5 5 5 5 5 5 5 5 5 5 5 5 5 5 5 5 5 5 5 5 5 5 5 5 5 5 5 5 5 5 5 5 5 5 5 5 5 5 5 5 5 5 5 5 5 5 5 5 5 5 5 5 5 5 5 5 5 5 5 5 5 5 5 5 5 5 5 5 5 5 5 5 5 5 5 5 5 5 5 5 5 5 5 5 5 5 5 5 5 5 5 5 5 5 5 5 5 5 5 5 5 5 5 5 5 5 5 5 5 5 5 5 5 5 5 5 5 5 5 5 5 5 5 5 5 5 5 5 5 5 5 5 5 5 5 5 5 5 5 5 5 5 5 5 5 5 5 5 5 5 5 5 5 5 5 5 5 5 5 5 5 5 5 5 5 5 5 5 5 5 5 5 5 5 5 5 5 5 5 5 5 5 5 5 5 5 5 5 5 5 5 5 5 5 5 5 5 5 5 5 5 5 5 5 5 5 5 5 5 5 5 5 5 5 5 5 5 5 5 5 5 5 5 5 5 5 5 5 5 5 5 5 5 5 5 5 5 5 5 5 5 5 5 5 5 5 5 5 5 5 5 5 5 5 5 5 5 5 5 5 5 5 5 5 5 5 5 5 5 5 5 5 5 5 5 5 5 5 5 5 5 5 5 5 5 5 5 5 5 5 5 5 5 5 5 5 5 5 5 5 5 5 5 5 5 5 5 5 5 5 5 5 5 5 5 5 5 5 5 5 5 5 5 5 5 5 5 5 5 5 5 5 5 5 5 5 5 5 5 5 5 5 5 5 5 5 5 5 5 5 5 5 5 5 5 5 5 5 5 5 5 5 5 5 5 5 5 5 5 5 5 5 5 5 5 5 5 5 5 5 5 5 5 5 5 5 5 5 5 5 5 5 5 5 5 5 5 5 5 5 5 5 5 5 5 5 5 5 5 5 5 5 5 5 5 5 5 5 5 5 5 5 5 5 5 5 5 5 5 5 5 5 5 5 5 5 5 5 5 5 5 5 5 5 5 5 5 5 5 5 5 5 5 5 5 5 5 5 5 5 5 5 5 5 5 5 5 5 5 5 5 5 5 5 5 5 5 5 5 5 5 5 5 5 5 5 5 5 5 5 5 5 5 5 5 5 5 5 5 5 5 5 5 5 5 5 5 5 5 5 5 5 5 5 5 5 5 5 5 5 5 5 5 5 5 5 5 5 5 5 5 5 5 5 5 5 5 5 5 5 5 5 5 5 5 5 5 5 5 5 5 5 5 5 5 5 5 5 5 5 5 5 5 5 5 5 5 5 5 5 5 5 5 5 5 5 5 5 5 5 5 5 5 5 5 5 5 5 5 5 5 5 5 5 5 5 5 5 5 5 5 5 5 5 5 5 5 5 5 5 5 5 5 5 5 5 5 5 5 5 5 5 5 5 5 5 5 5 5 5 5 5 5 5 5 5 5 5 5 5 5 5 5 5 5 5 5 5 5 5 5 5 5 5 5 5 5 5 5 5 5 5 5 5 5 5 5 5 5 5 5 5 5 5 5 5 5 5 5 5 5 5 5 5 5 5 5 5 5 5 5 5 5 5 5 5 5 5 5 5 5 5 5 5 5 5 5 5 5 5 5 5 5 5 5 5 5 5 5 5 5 5 5 5 5 5 5 5 5 5 5 5 5 5 5 5 5 5 5 5 5 5 5 5 5 5 5 5 5 5 5 5 5 5 5 5 5 5 5 5 5 5 5 5 5 5 5 5 5 5 5 5 5 5 5 5 5 5 5 5 5 5 5 5 5 5 5 5 5 5 5 5 5 5 5 5 5 5 5 5 5 5 5 5 5 5 5 5 5 5 5 5 5 5 5 5 5 5 5 5 5 5 5 5 5 5 5 5 5 5 5 5 5 5 5 5 5 5 5 5 5 5 5 5 5 5 5 5 5 5 5 5 5 5 5 5 5 5 5 5 5 5 5 5 5 5 5 5 5 5 5 5 5 5 5 5 5 5 5 5 5 5 5 5 5 5 5 5 5 5 5 5 5 5 5 5 5 5 5 5 5 5 5 5 5 5 5 5 5 5 5 5 5 5 5 5 5 5 5 5 5 5 5 5 5 5 5 5 5 5 5 5 5 5 5 5 5 5 5 5 5 5 5 5 5 5 5 5 5 5 5 5 5 5 5 5 5 5 5 5 5 5 5 5 5 5 5 5 5 5 5 5 5 5 5 5 5 5 5 5 5 5 5 5 5 5 5 5 5 5 5 5 5 5 5 5 5 5 5 5 5 5 5 5 5 5 5 5 5 5 5 5 5 5 5 5 5 5 5 5 5 5 5 5 5 5 5 5 5 5 5 5 5 5 5 5 5 5 5 5 5 5 5 5 5 5 5 5 5 5 5 5 5 5 5 5 5 5 5 5 5 5 5 5 5 5 5 5 5 5 5 5 5 5 5 5 5 5 5 5 5 5 5 5 5 5 5 5 5 5 5 5 5 5 5 5 5 5 5 5 5 5 5 5 5 5 5 5 5 5 5 5 5 5 5 5 5 5 5 5 5 5 5 5 5 5 5 5 5 5 5 5 5 5 5 5 5 5 5 5 5 5 5 5 5 5 5 5 5 5 5 5 5 5 5 5 5 5 5 5 5 5 5 5 5 5 5 5 5 5 5 5 5 5 5 5 5 5 5 5 5 5 5 5 5 5 5 5 5 5 5 5 5 5 5 5 5 5 5 5 5 5 5 5 5 5 5 5 5 5 5 5 5 5 5 5 5 5 5 5 5 5 5 5 5 5 5 5 5 5 5 5 5 5 5 5 5 5 5 5 5 5 5 5 5 5 5 5 5 5 5 5 5 5 5 5 5 5 5 5 5 5 5 5 5 5 5 5 5 5 5 5 5 5 5 5 5 5 5 5 5 5 5 5 5 5 5 5 5 5 5 5 5 5 5 5 5 5 5 5 5 5 5 5 5 5 5 5 5 5 5 5 5 5 5 5 5 5 5 5 5 5 5 5 5 5 5 5 5 5 5 5 5 5 5 5 5 5 5 5 5 5 5 5 5 5 5 5 5 5 5 5 5 5 5 5 5 5 5 5 5 5 5 5 5 5 5 5 5 5 5 5 5 5 5 5 5 5 5 5 5 5 5 5 5 5 5 5 5 5 5 5 5 5 5 5 5 5 5 5 5 5 5 5 5 5 5 5 5 5 5 5 5 5 5 5 5 5 5 5 5 5 5 5 5 5 5 5 5 5 5 5 5 5 5 5 5 5 5 5 5 5 5 5 5 5 5 5 5 5 5 5 5 5 5 5 5 5 5 5 5 5 5 5 5 5 5 5 5 5 5 5 5 5 5 5 5 5 5 5 5 5 5 5 5 5 5 5 5 5 5 5 5 5 5 5 5 5 5 5 5 5 5 5 5 5 5 5 5 5 5 5 5 5 5 5 5 5 5 5 5 5 5 5 5 5 5 5 5 5 5 5 5 5 5 5 5 5 5 5 5 5 5 5 5 5 5 5 5 5 5 5 5 5 5 5 5 5 5 5 5 5 5 5 5 5 5 5 5 5 5 5 5 5 5 5 5 5 5 5 5 5 5 5 5 5 5 5 5 5 5 5 5 5 5 5 5 5 5 5 5 5 5 5 5 5 5 5 5 5 5 5 5 5 5 5 5 5 5 5 5 5 5 5 5 5 5 5 5 5 5 5 5 5 5 5 5 5 5 5 5 5 5 5 5 5 5 5 5 5 5 5 5 5 5 5 5 5 5 5 5 5 5 5 5 5 5 5 5 5 5 5 5 5 5 5 5 5 5 5 5 5 5 5 5 5 5 5 5 5 5 5 5 5 5 5 5 5 5 5 5 5 5 5 5 5 5 5 5 5 5 5 5 5 5 5 5 5 5 5 5 5 5 5 5 5 5 5 5 5 5 5 5 5 5 5 5 5 5 5 5 5 5 5 5 5 5 5 5 5 5 5 5 5 5 5 5 5 5 5 5 5 5 5 5 5 5 5 5 5 5 5 5 5 5 5 5 5 5 5 5 5 5 5 5 5 5 5 5 5 5 5 5 5 5 5 5 5 5 5 5 5 5 5 5 5 5 5 5 5 5 5 5 5 5 5 5 5 5 5 5 5 5 5 5 5 5 5 5 5 5 5 5 5 5 5 5 5 5 5 5 5 5 5 5 5 5 5 5 5 5 5 5 5 5 5 5 5 5 5 5 5 5 5 5 5 5 5 5 5 5 5 5 5 5 5 5 5 5 5 5 5 5 5 5 5 5 5 5 5 5 5 5 5 5 5 5 5 5 5 5 5 5 5 5 5 5 5 5 5 5 5 5 5 5 5 5 5 5 5 5 5 5 5 5 5 5 5 5 5 5 5 5 5 5 5 5 5 5 5 5 5 5 5 5 5 5 5 5 5 5 5 5 5 5 5 5 5 5 5 5 5 5 5 5 5 5 5 5 5 5 5 5 5 5 5 5 5 5 5 5 5 5 5 5 5 5 5 5 5 5 5 5 5 5 5 5 5 5 5 5 5 5 5 5 5 5 5 5 5 5 5 5 5 5 5 5 5 5 5 5 5 5 5 5 5 5 5 5 5 5 5 5 5 5 5 5 5 5 5 5 5 5 5 5 5 5 5 5 5 5 5 5 5 5 5 5 5 5 5 5 5 5 5 5 5 5 5 5 5 5 5 5 5 5 5 5 5 5 5 5 5 5 5 5 5 5 5 5 5 5 5 5 5 5 5 5 5 5 5 5 5 5 5 5 5 5 5 5 5 5 5 5 5 5 5 5 5 5 5 5 5 5 5 5 5 5 5 5 5 5 5 5 5 5 5 5 5 5 5 5 5 5 5 5 5 5 5 5 5 5 5 5 5 5 5 5 5 5 5 5 5 5 5 5 5 5 5 5 5 5 5 5 5 5 5 5 5 5 5 5 5 5 5 5 5 5 5 5 5 5 5 5 5 5 5 5 5 5 5 5 5 5 5 5 5 5 5 5 5 5 5 5 5 5 5 5 5 5 5 5 5 5 5 5 5 5 5 5 5 5 5 5 5 5 5 5 5 5 5 5 5 5 5 5 5 5 5 5 5 5 5 5 5 5 5 5 5 5 5 5 5 5 5 5 5 5 5 5 5 5 5 5 5 5 5 5 5 5 5 5 5 5 5 5 5 5 5 5 5 5 5 5 5 5 5 5 5 5 5 5 5 5 5 5 5 5 5 5 5 5 5 5 5 5 5 5 5 5 5 5 5 5 5 5 5 5 5 5 5 5 5 5 5 5 5 5 5 5 5 5 5 5 5 5 5 5 5 5 5 5 5 5 5 5 5 5 5 5 5 5 5 5 5 5 5 5 5 5 5 5 5 5 5 5 5 5 5 5 5 5 5 5 5 5 5 5 5 5 5 5 5 5 5 5 5 5 5 5 5 5 5 5 5 5 5 5 5 5 5 5 5 5 5 5 5 5 5 5 5 5 5 5 5 5 5 5 5 5 5 5 5 5 5 5 5 5 5 5 5 5 5 5 5 5 5 5 5 5 5 5 5 5 5 5 5 5 5 5 5 5 5 5 5 5 5 5 5 5 5 5 5 5 5 5 5 5 5 5 5 5 5 5 5 5 5 5 5 5 5 5 5 5 5 5 5 5 5 5 5 5 5 5 5 5 5 5 5 5 5 5 5 5 5 5 5 5 5 5 5 5 5 5 5 5 5 5 5 5 5 5 5 5 5 5 5 5 5 5 5 5 5 5 5 5 5 5 5 5 5 5 5 5 5 5 5 5 5 5 5 5 5 5 5 5 5 5 5 5 5 5 5 5 5 5 5 5 5 5 5 5 5 5 5 5 5 5 5 5 5 5 5 5 5 5 5 5 5 5 5 5 5 5 5 5 5 5 5 5 5 5 5 5 5 5 5 5 5 5 5 5 5 5 5 5 5 5 5 5 5 5 5 5 5 5 5 5 5 5 5 5 5 5 5 5 5 5 5 5 5 5 5 5 5 5 5 5 5 5 5 5 5 5 5 5 5 5 5 5 5 5 5 5 5 5 5 5 5 5 5 5 5 5 5 5 5 5 5 5 5 5 5 5 5 5 5 5 5 5 5 5 5 5 5 5 5 5 5 5 5 5 5 5 5 5 5 5 5 5 5 5 5 5 5 5 5 5 5 5 5 5 5 5 5 5 5 5 5 5 5 5 5 5 5 5 5 5 5 5 5 5 5 5 5 5 5 5 5 5 5 5 5 5 5 5 5 5 5 5 5 5 5 5 5 5 5 5 5 5 5 5 5 5 5 5 5 5 5 5 5 5 5 5 5 5 5 5 5 5 5 5 5 5 5 5 5 5 5 5 5 5 5 5 5 5 5 5 5 5 5 5 5 5 5 5 5 5 5 5 5 5 5 5 5 5 5 5 5 5 5 5 5 5 5 5 5 5 5 5 5 5 5 5 5 5 5 5 5 5 5 5 5 5 5 5 5 5 5 5 5 5 5 5 5 5 5 5 5 5 5 5 5 5 5 5 5 5 5 5 5 5 5 5 5 5 5 5 5 5 5 5 5 5 5 5 5 5 5 5 5 5 5 5 5 5 5 5 5 5 5 5 5 5 5 5 5 5 5 5 5 5 5 5 5 5 5 5 5 5 5 5 5 5 5 5 5 5 5 5 5 5 5 5 5 5 5 5 5 5 5 5 5 5 5 5 5 5 5 5 5 5 5 5 5 5 5 5 5 5 5 5 5 5 5 5 5 5 5 5 5 5 5 5 5 5 5 5 5 5 5 5 5 5 5 5 5 5 5 5 5 5 5 5 5 5 5 5 5 5 5 5 5 5 5 5 5 5 5 5 5 5 5 5 5 5 5 5 5 5 5 5 5 5 5 5 5 5 5 5 5 5 5 5 5 5 5 5 5 5 5 5 5 5 5 5 5 5 5 5 5 5 5 5 5 5 5 5 5 5 5 5 5 5 5 5 5 5 5 5 5 5 5 5 5 5 5 5 5 5 5 5 5 5 5 5 5 5 5 5 5 5 5 5 5 5 5 5 5 5 5 5 5 5 5 5 5 5 5 5 5 5 5 5 5 5 5 5 5 5 5 5 5 5 5 5 5 5 5 5 5 5 5 5 5 5 5 5 5 5 5 5 5 5 5 5 5 5 5 5 5 5 5 5 5 5 5 5 5 5 5 5 5 5 5 5 5 5 5 5 5 5 5 5 5 5 5 5 5 5 5 5 5 5 5 5 5 5 5 5 5 5 5 5 5 5 5 5 5 5 5 5 5 5 5 5 5 5 5 5 5 5 5 5 5 5 5 5 5 5 5 5 5 5 5 5 5 5 5 5 5 5 5 5 5 5 5 5 5 5 5 5 5 5 5 5 5 5 5 5 5 5 5 5 5 5 5 5 5 5 5 5 5 5 5 5 5 5 5 5 5 5 5 5 5 5 5 5 5 5 5 5 5 5 5 5 5 5 5 5 5 5 5 5 5 5 5 5 5 5 5 5 5 5 5 5 5 5 5 5 5 5 5 5 5 5 5 5 5 5 5 5 5 5 5 5 5 5 5 5 5 5 5 5 5 5 5 5 5 5 5 5 5 5 5 5 5 5 5 5 5 5 5 5 5 5 5 5 5 5 5 5 5 5 5 5 5 5 5 5 5 5 5 5 5 5 5 5 5 5 5 5 5 5 5 5 5 5 5 5 5 5 5 5 5 5 5 5 5 5 5 5 5 5 5 5 5 5 5 5 5 5 5 5 5 5 5 5 5 5 5 5 5 5 5 5 5 5 5 5 5 5 5 5 5 5 5 5 5 5 5 5 5 5 5 5 5 5 5 5 5 5 5 5 5 5 5 5 5 5 5 5 5 5 5 5 5 5 5 5 5 5 5 5 5 5 5 5 5 5 5 5 5 5 5 5 5 5 5 5 5 5 5 5 5 5 5 5 5 5 5 5 5 5 5 5 5 5 5 5 5 5 5 5 5 5 5 5 5 5 5 5 5 5 5 5 5 5 5 5 5 5 5 5 5 5 5 5 5 5 5 5 5 5 5 5 5 5 5 5 5 5 5 5 5 5 5 5 5 5 5 5 5 5 5 5 5 5 5 5 5 5 5 5 5 5 5 5 5 5 5 5 5 5 5 5 5 5 5 5 5 5 5 5 5 5 5 5 5 5 5 5 5 5 5 5 5 5 5 5 5 5 5 5 5 5 5 5 5 5 5 5 5 5 5 5 5 5 5 5 5 5 5 5 5 5 5 5 5 5 5 5 5 5 5 5 5 5 5 5 5 5 5 5 5 5 5 5 5 5 5 5 5 5 5 5 5 5 5 5 5 5 5 5 5 5 5 5 5 5 5 5 5 5 5 5 5 5 5 5 5 5 5 5 5 5 5 5 5 5 5 5 5 5 5 5 5 5 5 5 5 5 5 5 5 5 5 5 5 5 5 5 5 5 5 5 5 5 5 5 5 5 5 5 5 5 5 5 5 5 5 5 5 5 5 5 5 5 5 5 5 5 5 5 5 5 5 5 5 5 5 5 5 5 5 5 5 5 5 5 5 5 5 5 5 5 5 5 5 5 5 5 5 5 5 5 5 5 5 5 5 5 5 5 5 5 5 5 5 5 5 5 5 5 5 5 5 5 5 5 5 5 5 5 5 5 5 5 5 5 5 5 5 5 5 5 5 5 5 5 5 5 5 5 5 5 5 5 5 5 5 5 5 5 5 5 5 5 5 5 5 5 5 5 5 5 5 5 5 5 5 5 5 5 5 5 5 5 5 5 5 5 5 5 5 5 5 5 5 5 5 5 5 5 5 5 5 5 5 5 5 5 5 5 5 5 5 5 5 5 5 5 5 5 5 5 5 5 5 5 5 5 5 5 5 5 5 5 5 5 5 5 5 5 5 5 5 5 5 5 5 5 5 5 5 5 5 5 5 5 5 5 5 5 5 5 5 5 5 5 5 5 5 5 5 5 5 5 5 5 5 5 5 5 5 5 5 5 5 5 5 5 5 5 5 5 5 5 5 5 5 5 5 5 5 5 5 5 5 5 5 5 5 5 5 5 5 5 5 5 5 5 5 5 5 5 5 5 5 5 5 5 5 5 5 5 5 5 5 5 5 5 5 5 5 5 5 5 5 5 5 5 5 5 5 5 5 5 5 5 5 5 5 5 5 5 5 5 5 5 5 5 5 5 5 5 5 5 5 5 5 5 5 5 5 5 5 5 5 5 5 5 5 5 5 5 5 5 5 5 5 5 5 5 5 5 5 5 5 5 5 5 5 5 5 5 5 5 5 5 5 5 5 5 5 5 5 5 5 5 5 5 5 5 5 5 5 5 5 5 5 5 5 5 5 5 5 5 5 5 5 5 5 5 5 5 5 5 5 5 5 5 5 5 5 5 5 5 5 5 5 5 5 5 5 5 5 5 5 5 5 5 5 5 5 5 5 5 5 5 5 5 5 5 5 5 5 5 5 5 5 5 5 5 5 5 5 5 5 5 5 5 5 5 5 5 5 5 5 5 5 5 5 5 5 5 5 5 5 5 5 5 5 5 5 5 5 5 5 5 5 5 5 5 5 5 5 5 5 5 5 5 5 5 5 5 5 5 5 5 5 5 5 5 5 5 5 5 5 5 5 5 5 5 5 5 5 5 5 5 5 5 5 5 5 5 5 5 5 5 5 5 5 5 5 5 5 5 5 5 5 5 5 5 5 5 5 5 5 5 5 5 5 5 5 5 5 5 5 5 5 5 5 5 5 5 5 5 5 5 5 5 5 5 5 5 5 5 5 5 5 5 5 5 5 5 5 5 5 5 5 5 5 5 5 5 5 5 5 5 5 5 5 5 5 5 5 5 5 5 5 5 5 5 5 5 5 5 5 5 5 5 5 5 5 5 5 5 5 5 5 5 5 5 5 5 5 5 5 5 5 5 5 5 5 5 5 5 5 5 5 5 5 5 5 5 5 5 5 5 5 5 5 5 5 5 5 5 5 5 5 5 5 5 5 5 5 5 5 5 5 5 5 5 5 5 5 5 5 5 5 5 5 5 5 5 5 5 5 5 5 5 5 5 5 5 5 5 5 5 5 5 5 5 5 5 5 5 5 5 5 5 5 5 5 5 5 5 5 5 5 5 5 5 5 5 5 5 5 5 5 5 5 5 5 5 5 5 5 5 5 5 5 5 5 5 5 5 5 5 5 5 5 5 5 5 5 5 5 5 5 5 5 5 5 5 5 5 5 5 5 5 5 5 5 5 5 5 5 5 5 5 5 5 5 5 5 5 5 5 5 5 5 5 5 5 5 5 5 5 5 5 5 5 5 5 5 5 5 5 5 5 5 5 5 5 5 5 5 5 5 5 5 5 5 5 5 5 5 5 5 5 5 5 5 5 5 5 5 5 5 5 5 5 5 5 5 5 5 5 5 5 5 5 5 5 5 5 5 5 5 5 5 5 5 5 5 5 5 5 5 5 5 5 5 5 5 5 5 5 5 5 5 5 5 5 5 5 5 5 5 5 5 5 5 5 5 5 5 5 5 5 5 5 5 5 5 5 5 5 5 5 5 5 5 5 5 5 5 5 5 5 5 5 5 5 5 5 5 5 5 5 5 5 5 5 5 5 5 5 5 5 5 5 5 5 5 5 5 5 5 5 5 5 5 5 5 5 5 5 5 5 5 5 5 5 5 5 5 5 5 5 5 5 5 5 5 5 5 5 5 5 5 5 5 5 5 5 5 5 5 5 5 5 5 5 5 5 5 5 5 5 5 5 5 5 5 5 5 5 5 5 5 5 5 5 5 5 5 5 5 5 5 5 5 5 5 5 5 5 5 5 5 5 5 5 5 5 5 5 5 5 5 5 5 5 5 5 5 5 5 5 5 5 5 5 5 5 5 5 5 5 5 5 5 5 5 5 5 5 5 5 5 5 5 5 5 5 5 5 5 5 5 5 5 5 5 5 5 5 5 5 5 5 5 5 5 5 5 5 5 5 5 5 5 5 5 5 5 5 5 5 5 5 5 5 5 5 5 5 5 5 5 5 5 5 5 5 5 5 5 5 5 5 5 5 5 5 5 5 5 5 5 5 5 5 5 5 5 5 5 5 5 5 5 5 5 5 5 5 5 5 5 5 5 5 5 5 5 5 5 5 5 5 5 5 5 5 5 5 5 5 5 5 5 5 5 5 5 5 5 5 5 5 5 5 5 5 5 5 5 5 5 5 5 5 5 5 5 5 5 5 5 5 5 5 5 5 5 5 5 5 5 5 5 5 5 5 5 5 5 5 5 5 5 5 5 5 5 5 5 5 5 5 5 5 5 5 5 5 5 5 5 5 5 5 5 5 5 5 5 5 5 5 5 5 5 5 5 5 5 5 5 5 5 5 5 5 5 5 5 5 5 5 5 5 5 5 5 5 5 5 5 5 5 5 5 5 5 5 5 5 5 5 5 5 5 5 5 5 5 5 5 5 5 5 5 5 5 5 5 5 5 5 5 5 5 5 5 5 5 5 5 5 5 5 5 5 5 5 5 5 5 5 5 5 5 5 5 5 5 5 5 5 5 5 5 5 5 5 5 5 5 5 5 5 5 5 5 5 5 5 5 5 5 5 5 5 5 5 5 5 5 5 5 5 5 5 5 5 5 5 5 5 5 5 5 5 5 5 5 5 5 5 5 5 5 5 5 5 5 5 5 5 5 5 5 5 5 5 5 5 5 5 5 5 5 5 5 5 5 5 5 5 5 5 5 5 5 5 5 5 5 5 5 5 5 5 5 5 5 5 5 5 5 5 5 5 5 5 5 5 5 5 5 5 5 5 5 5 5 5 5 5 5 5 5 5 5 5 5 5 5 5 5 5 5 5 5 5 5 5 5 5 5 5 5 5 5 5 5 5 5 5 5 5 5 5 5 5 5 5 5 5 5 5 5 5 5 5 5 5 5 5 5 5 5 5 5 5 5 5 5 5 5 5 5 5 5 5 5 5 5 5 5 5 5 5 5 5 5 5 5 5 5 5 5 5 5 5 5 5 5 5 5 5 5 5 5 5 5 5 5 5 5 5 5 5 5 5 5 5 5 5 5 5 5 5 5 5 5 5 5 5 5 5 5 5 5 5 5 5 5 5 5 5 5 5 5 5 5 5 5 5 5 5 5 5 5 5 5 5 5 5 5 5 5 5 5 5 5 5 5 5 5 5 5 5 5 5 5 5 5 5 5 5 5 5 5 5 5 5 5 5 5 5 5 5 5 5 5 5 5 5 5 5 5 5 5 5 5 5 5 5 5 5 5 5 5 5 5 5 5 5 5 5 5 5 5 5 5 5 5 5 5 5 5 5 5 5 5 5 5 5 5 5 5 5 5 5 5 5 5 5 5 5 5 5 5 5 5 5 5 5 5 5 5 5 5 5 5 5 5 5 5 5 5 5 5 5 5 5 5 5 5 5 5 5 5 5 5 5 5 5 5 5 5 5 5 5 5 5 5 5 5 5 5 5 5 5 5 5 5 5 5 5 5 5 5 5 5 5 5 5 5 5 5 5 5 5 5 5 5 5 5 5 5 5 5 5 5 5 5 5 5 5 5 5 5 5 5 5 5 5 5 5 5 5 5 5 5 5 5 5 5 5 5 5 5 5 5 5 5 5 5 5 5 5 5 5 5 5 5 5 5 5 5 5 5 5 5 5 5 5 5 5 5 5 5 5 5 5 5 5 5 5 5 5 5 5 5 5 5 5 5 5 5 5 5 5 5 5 5 5 5 5 5 5 5 5 5 5 5 5 5 5 5 5 5 5 5 5 5 5 5 5 5 5 5 5 5 5 5 5 5 5 5 5 5 5 5 5 5 5 5 5 5 5 5 5 5 5 5 5 5 5 5 5 5 5 5 5 5 5 5 5 5 5 5 5 5 5 5 5 5 5 5 5 5 5 5 5 5 5 5 5 5 5 5 5 5 5 5 5 5 5 5 5 5 5 5 5 5 5 5 5 5 5 5 5 5 5 5 5 5 5 5 5 5 5 5 5 5 5 5 5 5 5 5 5 5 5 5 5 5 5 5 5 5 5 5 5 5 5 5 5 5 5 5 5 5 5 5 5 5 5 5 5 5 5 5 5 5 5 5 5 5 5 5 5 5 5 5 5 5 5 5 5 5 5 5 5 5 5 5 5 5 5 5 5 5 5 5 5 5 5 5 5 5 5 5 5 5 5 5 5 5 5 5 5 5 5 5 5 5 5 5 5 5 5 5 5 5 5 5 5 5 5 5 5 5 5 5 5 5 5 5 5 5 5 5 5 5 5 5 5 5 5 5 5 5 5 5 5 5 5 5 5 5 5 5 5 5 5 5 5 5 5 5 5 5 5 5 5 5 5 5 5 5 5 5 5 5 5 5 5 5 5 5 5 5 5 5 5 5 5 5 5 5 5 5 5 5 5 5 5 5 5 5 5 5 5 5 5 5 5 5 5 5 5 5 5 5 5 5 5 5 5 5 5 5 5 5 5 5 5 5 5 5 5 5 5 5 5 5 5 5 5 5 5 5 5 5 5 5 5 5 5 5 5 5 5 5 5 5 5 5 5 5 5 5 5 5 5 5 5 5 5 5 5 5 5 5 5 5 5 5 5 5 5 5 5 5 5 5 5 5 5 5 5 5 5 5 5 5 5 5 5 5 5 5 5 5 5 5 5 5 5 5 5 5 5 5 5 5 5 5 5 5 5 5 5 5 5 5 5 5 5 5 5 5 5 5 5 5 5 5 5 5 5 5 5 5 5 5 5 5 5 5 5 5 5 5 5 5 5 5 5 5 5 5 5 5 5 5 5 5 5 5 5 5 5 5 5 5 5 5 5 5 5 5 5 5 5 5 5 5 5 5 5 5 5 5 5 5 5 5 5 5 5 5 5 5 5 5 5 5 5 5 5 5 5 5 5 5 5 5 5 5 5 5 5 5 5 5 5 5 5 5 5 5 5 5 5 5 5 5 5 5 5 5 5 5 5 5 5 5 5 5 5 5 5 5 5 5 5 5 5 5 5 5 5 5 5 5 5 5 5 5 5 5 5 5 5 5 5 5 5 5 5 5 5 5 5 5 5 5 5 5 5 5 5 5 5 5 5 5 5 5 5 5 5 5 5 5 5 5 5 5 5 5 5 5 5 5 5 5 5 5 5 5 5 5 5 5 5 5 5 5 5 5 5 5 5 5 5 5 5 5 5 5 5 5 5 5 5 5 5 5 5 5 5 5 5 5 5 5 5 5 5 5 5 5 5 5 5 5 5 5 5 5 5 5 5 5 5 5 5 5 5 5 5 5 5 5 5 5 5 5 5 5 5 5 5 5 5 5 5 5 5 5 5 5 5 5 5 5 5 5 5 5 5 5 5 5 5 5 5 5 5 5 5 5 5 5 5 5 5 5 5 5 5 5 5 5 5 5 5 5 5 5 5 5 5 5 5 5 5 5 5 5 5 5 5 5 5 5 5 5 5 5 5 5 5 5 5 5 5 5 5 5 5 5 5 5 5 5 5 5 5 5 5 5 5 5 5 5 5 5 5 5 5 5 5 5 5 5 5 5 5 5 5 5 5 5 5 5 5 5 5 5 5 5 5 5 5 5 5 5 5 5 5 5 5 5 5 5 5 5 5 5 5 5 5 5 5 5 5 5 5 5 5 5 5 5 5 5 5 5 5 5 5 5 5 5 5 5 5 5 5 5 5 5 5 5 5 5 5 5 5 5 5 5 5 5 5 5 5 5 5 5 5 5 5 5 5 5 5 5 5 5 5 5 5 5 5 5 5 5 5 5 5 5 5 5 5 5 5 5 5 5 5 5 5 5 5 5 5 5 5 5 5 5 5 5 5 5 5 5 5 5 5 5 5 5 5 5 5 5 5 5 5 5 5 5 5 5 5 5 5 5 5 5 5 5 5 5 5 5 5 5 5 5 5 5 5 5 5 5 5 5 5 5 5 5 5 5 5 5 5 5 5 5 5 5 5 5 5 5 5 5 5 5 5 5 5 5 5 5 5 5 5 5 5 5 5 5 5 5 5 5 5 5 5 5 5 5 5 5 5 5 5 5 5 5 5 5 5 5 5 5 5 5 5 5 5 5 5 5 5 5 5 5 5 5 5 5 5 5 5 5 5 5 5 5 5 5 5 5 5 5 5 5 5 5 5 5 5 5 5 5 5 5 5 5 5 5 5 5 5 5 5 5 5 5 5 5 5 5 5 5 5 5 5 5 5 5 5 5 5 5 5 5 5 5 5 5 5 5 5 5 5 5 5 5 5 5 5 5 5 5 5 5 5 5 5 5 5 5 5 5 5 5 5 5 5 5 5 5 5 5 5 5 5 5 5 5 5 5 5 5 5 5 5 5 5 5 5 5 5 5 5 5 5 5 5 5 5 5 5 5 5 5 5 5 5 5 5 5 5 5 5 5 5 5 5 5 5 5 5 5 5 5 5 5 5 5 5 5 5 5 5 5 5 5 5 5 5 5 5 5 5 5 5 5 5 5 5 5 5 5 5 5 5 5 5 5 5 5 5 5 5 5 5 5 5 5 5 5 5 5 5 5 5 5 5 5 5 5 5 5 5 5 5 5 5 5 5 5 5 5 5 5 5 5 5 5 5 5 5 5 5 5 5 5 5 5 5 5 5 5 5 5 5 5 5 5 5 5 5 5 5 5 5 5 5 5 5 5 5 5 5 5 5 5 5 5 5 5 5 5 5 5 5 5 5 5 5 5 5 5 5 5 5 5 5 5 5 5 5 5 5 5 5 5 5 5 5 5 5 5 5 5 5 5 5 5 5 5 5 5 5 5 5 5 5 5 5 5 5 5 5 5 5 5 5 5 5 5 5 5 5 5 5 5 5 5 5 5 5 5 5 5 5 5 5 5 5 5 5 5 5 5 5 5 5 5 5 5 5 5 5 5 5 5 5 5 5 5 5 5 5 5 5 5 5 5 5 5 5 5 5 5 5 5 5 5 5 5 5 5 5 5 5 5 5 5 5 5 5 5 5 5 5 5 5 5 5 5 5 5 5 5 5 5 5 5 5 5 5 5 5 5 5 5 5 5 5 5 5 5 5 5 5 5 5 5 5 5 5 5 5 5 5 5 5 5 5 5 5 5 5 5 5 5 5 5 5 5 5 5 5 5 5 5 5 5 5 5 5 5 5 5 5 5 5 5 5 5 5 5 5 5 5 5 5 5 5 5 5 5 5 5 5 5 5 5 5 5 5 5 5 5 5 5 5 5 5 5 5 5 5 5 5 5 5 5 5 5 5 5 5 5 5 5 5 5 5 5 5 5 5 5 5 5 5 5 5 5 5 5 5 5 5 5 5 5 5 5 5 5 5 5 5 5 5 5 5 5 5 5 5 5 5 5 5 5 5 5 5 5 5 5 5 5 5 5 5 5 5 5 5 5 5 5 5 5 5 5 5 5 5 5 5 5 5 5 5 5 5 5 5 5 5 5 5 5 5 5 5 5 5 5 5 5 5 5 5 5 5 5 5 5 5 5 5 5 5 5 5 5 5 5 5 5 5 5 5 5 5 5 5 5 5 5 5 5 5 5 5 5 5 5 5 5 5 5 5 5 5 5 5 5 5 5 5 5 5 5 5 5 5 5 5 5 5 5 5 5 5 5 5 5 5 5 5 5 5 5 5 5 5 5 5 5 5 5 5 5 5 5 5 5 5 5 5 5 5 5 5 5 5 5 5 5 5 5 5 5 5 5 5 5 5 5 5 5 5 5 5 5 5 5 5 5 5 5 5 5 5 5 5 5 5 5 5 5 5 5 5 5 5 5 5 5 5 5 5 5 5 5 5 5 5 5 5 5 5 5 5 5 5 5 5 5 5 5 5 5 5 5 5 5 5 5 5 5 5 5 5 5 5 5 5 5 5 5 5 5 5 5 5 5 5 5 5 5 5 5 5 5 5 5 5 5 5 5 5 5 5 5 5 5 5 5 5 5 5 5 5 5 5 5 5 5 5 5 5 5 5 5 5 5 5 5 5 5 5 5 5 5 5 5 5 5 5 5 5 5 5 5 5 5 5 5 5 5 5 5 5 5 5 5 5 5 5 5 5 5 5 5 5 5 5 5 5 5 5 5 5 5 5 5 5 5 5 5 5 5 5 5 5 5 5 5 5 5 5 5 5 5 5 5 5 5 5 5 5 5 5 5 5 5 5 5 5 5 5 5 5 5 5 5 5 5 5 5 5 5 5 5 5 5 5 5 5 5 5 5 5 5 5 5 5 5 5 5 5 5 5 5 5 5 5 5 5 5 5 5 5 5 5 5 5 5 5 5 5 5 5 5 5 5 5 5 5 5 5 5 5 5 5 5 5 5 5 5 5 5 5 5 5 5 5 5 5 5 5 5 5 5 5 5 5 5 5 5 5 5 5 5 5 5 5 5 5 5 5 5 5 5 5 5 5 5 5 5 5 5 5 5 5 5 5 5 5 5 5 5 5 5 5 5 5 5 5 5 5 5 5 5 5 5 5 5 5 5 5 5 5 5 5 5 5 5 5 5 5 5 5 5 5 5 5 5 5 5 5 5 5 5 5 5 5 5 5 5 5 5 5 5 5 5 5 5 5 5 5 5 5 5 5 5 5 5 5 5 5 5 5 5 5 5 5 5 5 5 5 5 5 5 5 5 5 5 5 5 5 5 5 5 5 5 5 5 5 5 5 5 5 5 5 5 5 5 5 5 5 5 5 5 5 5 5 5 5 5 5 5 5 5 5 5 5 5 5 5 5 5 5 5 5 5 5 5 5 5 5 5 5 5 5 5 5 5 5 5 5 5 5 5 5 5 5 5 5 5 5 5 5 5 5 5 5 5 5 5 5 5 5 5 5 5 5 5 5 5 5 5 5 5 5 5 5 5 5 5 5 5 5 5 5 5 5 5 5 5 5 5 5 5 5 5 5 5 5 5 5 5 5 5 5 5 5 5 5 5 5 5 5 5 5 5 5 5 5 5 5 5 5 5 5 5 5 5 5 5 5 5 5 5 5 5 5 5 5 5 5 5 5 5 5 5 5 5 5 5 5 5 5 5 5 5 5 5 5 5 5 5 5 5 5 5 5 5 5 5 5 5 5 5 5 5 5 5 5 5 5 5 5 5 5 5 5 5 5 5 5 5 5 5 5 5 5 5 5 5 5 5 5 5 5 5 5 5 5 5 5 5 5 5 5 5 5 5 5 5 5 5 5 5 5 5 5 5 5 5 5 5 5 5 5 5 5 5 5 5 5 5 5 5 5 5 5 5 5 5 5 5 5 5 5 5 5 5 5 5 5 5 5 5 5 5 5 5 5 5 5 5 5 5 5 5 5 5 5 5 5 5 5 5 5 5 5 5 5 5 5 5 5 5 5 5 5 5 5 5 5 5 5 5 5 5 5 5 5 5 5 5 5 5 5 5 5 5 5 5 5 5 5 5 5 5 5 5 5 5 5 5 5 5 5 5 5 5 5 5 5 5 5 5 5 5 5 5 5 5 5 5 5 5 5 5 5 5 5 5 5 5 5 5 5 5 5 5 5 5 5 5 5 5 5 5 5 5 5 5 5 5 5 5 5 5 5 5 5 5 5 5 5 5 5 5 5 5 5 5 5 5 5 5 5 5 5 5 5 5 5 5 5 5 5 5 5 5 5 5 5 5 5 5 5 5 5 5 5 5 5 5 5 5 5 5 5 5 5 5 5 5 5 5 5 5 5 5 5 5 5 5 5 5 5 5 5 5 5 5 5 5 5 5 5 5 5 5 5 5 5 5 5 5 5 5 5 5 5 5 5 5 5 5 5 5 5 5 5 5 5 5 5 5 5 5 5 5 5 5 5 5 5 5 5 5 5 5 5 5 5 5 5 5 5 5 5 5 5 5 5 5 5 5 5 5 5 5 5 5 5 5 5 5 5 5 5 5 5 5 5 5 5 5 5 5 5 5 5 5 5 5 5 5 5 5 5 5 5 5 5 5 5 5 5 5 5 5 5 5 5 5 5 5 5 5 5 5 5 5 5 5 5 5 5 5 5 5 5 5 5 5 5 5 5 5 5 5 5 5 5 5 5 5 5 5 5 5 5 5 5 5 5 5 5 5 5 5 5 5 5 5 5 5 5 5 5 5 5 5 5 5 5 5 5 5 5 5 5 5 5 5 5 5 5 5 5 5 5 5 5 5 5 5 5 5 5 5 5 5 5 5 5 5 5 5 5 5 5 5 5 5 5 5 5 5 5 5 5 5 5 5 5 5 5 5 5 5 5 5 5 5 5 5 5 5 5 5 5 5 5 5 5 5 5 5 5 5 5 5 5 5 5 5 5 5 5 5 5 5 5 5 5 5 5 5 5 5 5 5 5 5 5 5 5 5 5 5 5 5 5 5 5 5 5 5 5 5 5 5 5 5 5 5 5 5 5 5 5 5 5 5 5 5 5 5 5 5 5 5 5 5 5 5 5 5 5 5 5 5 5 5 5 5 5 5 5 5 5 5 5 5 5 5 5 5 5 5 5 5 5 5 5 5 5 5 5 5 5 5 5 5 5 5 5 5 5 5 5 5 5 5 5 5 5 5 5 5 5 5 5 5 5 5 5 5 5 5 5 5 5 5 5 5 5 5 5 5 5 5 5 5 5 5 5 5 5 5 5 5 5 5 5 5 5 5 5 5 5 5 5 5 5 5 5 5 5 5 5 5 5 5 5 5 5 5 5 5 5 5 5 5 5 5 5 5 5 5 5 5 5 5 5 5 5 5 5 5 5 5 5 5 5 5 5 5 5 5 5 5 5 5 5 5 5 5 5 5 5 5 5 5 5 5 5 5 5 5 5 5 5 5 5 5 5 5 5 5 5 5 5 5 5 5 5 5 5 5 5 5 5 5 5 5 5 5 5 5 5 5 5 5 5 5 5 5 5 5 5 5 5 5 5 5 5 5 5 5 5 5 5 5 5 5 5 5 5 5 5 5 5 5 5 5 5 5 5 5 5 5 5 5 5 5 5 5 5 5 5 5 5 5 5 5 5 5 5 5 5 5 5 5 5 5 5 5 5 5 5 5 5 5 5 5 5 5 5 5 5 5 5 5 5 5 5 5 5 5 5 5 5 5 5 5 5 5 5 5 5 5 5 5 5 5 5 5 5 5 5 5 5 5 5 5 5 5 5 5 5 5 5 5 5 5 5 5 5 5 5 5 5 5 5 5 5 5 5 5 5 5 5 5 5 5 5 5 5 5 5 5 5 5 5 5 5 5 5 5 5 5 5 5 5 5 5 5 5 5 5 5 5 5 5 5 5 5 5 5 5 5 5 5 5 5 5 5 5 5 5 5 5 5 5 5 5 5 5 5 5 5 5 5 5 5 5 5 5 5 5 5 5 5 5 5 5 5 5 5 5 5 5 5 5 5 5 5 5 5 5 5 5 5 5 5 5 5 5 5 5 5 5 5 5 5 5 5 5 5 5 5 5 5 5 5 5 5 5 5 5 5 5 5 5 5 5 5 5 5 5 5 5 5 5 5 5 5 5 5 5 5 5 5 5 5 5 5 5 5 5 5 5 5 5 5 5 5 5 5 5 5 5 5 5 5 5 5 5 5 5 5 5 5 5 5 5 5 5 5 5 5 5 5 5 5 5 5 5 5 5 5 5 5 5 5 5 5 5 5 5 5 5 5 5 5 5 5 5 5 5 5 5 5 5 5 5 5 5 5 5 5 5 5 5 5 5 5 5 5 5 5 5 5 5 5 5 5 5 5 5 5 5 5 5 5 5 5 5 5 5 5 5 5 5 5 5 5 5 5 5 5 5 5 5 5 5 5 5 5 5 5 5 5 5 5 5 5 5 5 5 5 5 5 5 5 5 5 5 5 5 5 5 5 5 5 5 5 5 5 5 5 5 5 5 5 5 5 5 5 5 5 5 5 5 5 5 5 5 5 5 5 5 5 5 5 5 5 5 5 5 5 5 5 5 5 5 5 5 5 5 5 5 5 5 5 5 5 5 5 5 5 5 5 5 5 5 5 5 5 5 5 5 5 5 5 5 5 5 5 5 5 5 5 5 5 5 5 5 5 5 5 5 5 5 5 5 5 5 5 5 5 5 5 5 5 5 5 5 5 5 5 5 5 5 5 5 5 5 5 5 5 5 5 5 5 5 5 5 5 5 5 5 5 5 5 5 5 5 5 5 5 5 5 5 5 5 5 5 5 5 5 5 5 5 5 5 5 5 5 5 5 5 5 5 5 5 5 5 5 5 5 5 5 5 5 5 5 5 5 5 5 5 5 5 5 5 5 5 5 5 5 5 5 5 5 5 5 5 5 5 5 5 5 5 5 5 5 5 5 5 5 5 5 5 5 5 5 5 5 5 5 5 5 5 5 5 5 5 5 5 5 5 5 5 5 5 5 5 5 5 5 5 5 5 5 5 5 5 5 5 5 5 5 5 5 5 5 5 5 5 5 5 5 5 5 5 5 5 5 5 5 5 5 5 5 5 5 5 5 5 5 5 5 5 5 5 5 5 5 5 5 5 5 5 5 5 5 5 5 5 5 5 5 5 5 5 5 5 5 5 5 5 5 5 5 5 5 5 5 5 5 5 5 5 5 5 5 5 5 5 5 5 5 5 5 5 5 5 5 5 5 5 5 5 5 5 5 5 5 5 5 5 5 5 5 5 5 5 5 5 5 5 5 5 5 5 5 5 5 5 5 5 5 5 5 5 5 5 5 5 5 5 5 5 5 5 5 5 5 5 5 5 5 5 5 5 5 5 5 5 5 5 5 5 5 5 5 5 5 5 5 5 5 5 5 5 5 5 5 5 5 5 5 5 5 5 5 5 5 5 5 5 5 5 5 5 5 5 5 5 5 5 5 5 5 5 5 5 5 5 5 5 5 5 5 5 5 5 5 5 5 5 5 5 5 5 5 5 5 5 5 5 5 5 5 5 5 5 5 5 5 5 5 5 5 5 5 5 5 5 5 5 5 5 5 5 5 5 5 5 5 5 5 5 5 5 5 5 5 5 5 5 5 5 5 5 5 5 5 5 5 5 5 5 5 5 5 5 5 5 5 5 5 5 5 5 5 5 5 5 5 5 5 5 5 5 5 5 5 5 5 5 5 5 5 5 5 5 5 5 5 5 5 5 5 5 5 5 5 5 5 5 5 5 5 5 5 5 5 5 5 5 5 5 5 5 5 5 5 5 5 5 5 5 5 5 5 5 5 5 5 5 5 5 5 5 5 5 5 5 5 5 5 5 5 5 5 5 5 5 5 5 5 5 5 5 5 5 5 5 5 5 5 5 5 5 5 5 5 5 5 5 5 5 5 5 5 5 5 5 5 5 5 5 5 5 5 5 5 5 5 5 5 5 5 5 5 5 5 5 5 5 5 5 5 5 5 5 5 5 5 5 5 5 5 5 5 5 5 5 5 5 5 5 5 5 5 5 5 5 5 5 5 5 5 5 5 5 5 5 5 5 5 5 5 5 5 5 5 5 5 5 5 5 5 5 5 5 5 5 5 5 5 5 5 5 5 5 5 5 5 5 5 5 5 5 5 5 5 5 5 5 5 5 5 5 5 5 5 5 5 5 5 5 5 5 5 5 5 5 5 5 5 5 5 5 5 5 5 5 5 5 5 5 5 5 5 5 5 5 5 5 5 5 5 5 5 5 5 5 5 5 5 5 5 5 5 5 5 5 5 5 5 5 5 5 5 5 5 5 5 5 5 5 5 5 5 5 5 5 5 5 5 5 5 5 5 5 5 5 5 5 5 5 5 5 5 5 5 5 5 5 5 5 5 5 5 5 5 5 5 5 5 5 5 5 5 5 5 5 5 5 5 5 5 5 5 5 5 5 5 5 5 5 5 5 5 5 5 5 5 5 5 5 5 5 5 5 5 5 5 5 5 5 5 5 5 5 5 5 5 5 5 5 5 5 5 5 5 5 5 5 5 5 5 5 5 5 5 5 5 5 5 5 5 5 5 5 5 5 5 5 5 5 5 5 5 5 5 5 5 5 5 5 5 5 5 5 5 5 5 5 5 5 5 5 5 5 5 5 5 5 5 5 5 5 5 5 5 5 5 5 5 5 5 5 5 5 5 5 5 5 5 5 5 5 5 5 5 5 5 5 5 5 5 5 5 5 5 5 5 5 5 5 5 5 5 5 5 5 5 5 5 5 5 5 5 5 5 5 5 5 5 5 5 5 5 5 5 5 5 5 5 5 5 5 5 5 5 5 5 5 5 5 5 5 5 5 5 5 5 5 5 5 5 5 5 5 5 5 5 5 5 5 5 5
</DataArray>
<DataArray Name="SecInvGammaDot" type="Float32" format="ascii" >
 0 0 0 0 0 0 0 0 0 0 0 0 0 0 28.6316 0 0 0 0 0 0 0 0 0 0 0 0 0 0 22.3651 0 0 0 0 0 0 0 0 0 0 0 0 0 0 22.3651 0 0 0 0 0 0 0 0 0 0 0 0 0 0 22.3651 0 0 0 0 0 0 0 0 0 0 0 0 0 0 22.3651 0 0 0 0 0 0 0 0 0 0 0 0 0 0 22.3651 0 0 0 0 0 0 0 0 0 0 0 0 0 0 22.3651 0 0 0 0 0 0 0 0 0 0 0 0 0 0 22.3651 0 0 0 0 0 0 0 0 0 0 0 0 0 0 22.3651 0 0 0 0 0 0 0 0 0 0 0 0 0 0 22.3651 0 0 0 0 0 0 0 0 0 0 0 0 0 0 22.3651 0 0 0 0 0 0 0 0 0 0 0 0 0 0 22.3651 0 0 0 0 0 0 0 0 0 0 0 0 0 0 22.3651 0 0 0 0 0 0 0 0 0 0 0 0 0 0 22.3651 0 0 0 0 0 0 0 0 0 0 0 0 0 0 22.3651 0 0 0 0 0 0 0 0 0 0 0 0 0 0 22.3651 0 0 0 0 0 0 0 0 0 0 0 0 0 0 22.3651 0 0 0 0 0 0 0 0 0 0 0 0 0 0 22.3651 0 0 0 0 0 0 0 0 0 0 0 0 0 0 22.3651 0 0 0 0 0 0 0 0 0 0 0 0 0 0 22.3651 0 0 0 0 0 0 0 0 0 0 0 0 0 0 22.3651 0 0 0 0 0 0 0 0 0 0 0 0 0 0 22.3651 0 0 0 0 0 0 0 0 0 0 0 0 0 0 22.3651 0 0 0 0 0 0 0 0 0 0 0 0 0 0 22.3651 0 0 0 0 0 0 0 0 0 0 0 0 0 0 22.3651 0 0 0 0 0 0 0 0 0 0 0 0 0 0 22.3651 0 0 0 0 0 0 0 0 0 0 0 0 0 0 22.3651 0 0 0 0 0 0 0 0 0 0 0 0 0 0 22.3651 0 0 0 0 0 0 0 0 0 0 0 0 0 0 22.3651 0 0 0 0 0 0 0 0 0 0 0 0 0 0 22.3651 0 0 0 0 0 0 0 0 0 0 0 0 0 0 22.3651 0 0 0 0 0 0 0 0 0 0 0 0 0 0 22.3651 0 0 0 0 0 0 0 0 0 0 0 0 0 0 22.3651 0 0 0 0 0 0 0 0 0 0 0 0 0 0 22.3651 0 0 0 0 0 0 0 0 0 0 0 0 0 0 28.6316 0 0 0 0 0 0 0 0 0 0 0 0 0 0 35.5756 0 0 0 0 0 0 0 0 0 0 0 0 0 0 27.7893 0 0 0 0 0 0 0 0 0 0 0 0 0 0 27.7893 0 0 0 0 0 0 0 0 0 0 0 0 0 0 27.7893 0 0 0 0 0 0 0 0 0 0 0 0 0 0 27.7893 0 0 0 0 0 0 0 0 0 0 0 0 0 0 27.7893 0 0 0 0 0 0 0 0 0 0 0 0 0 0 27.7893 0 0 0 0 0 0 0 0 0 0 0 0 0 0 27.7893 0 0 0 0 0 0 0 0 0 0 0 0 0 0 27.7893 0 0 0 0 0 0 0 0 0 0 0 0 0 0 27.7893 0 0 0 0 0 0 0 0 0 0 0 0 0 0 27.7893 0 0 0 0 0 0 0 0 0 0 0 0 0 0 27.7893 0 0 0 0 0 0 0 0 0 0 0 0 0 0 27.7893 0 0 0 0 0 0 0 0 0 0 0 0 0 0 27.7893 0 0 0 0 0 0 0 0 0 0 0 0 0 0 27.7893 0 0 0 0 0 0 0 0 0 0 0 0 0 0 27.7893 0 0 0 0 0 0 0 0 0 0 0 0 0 0 27.7893 0 0 0 0 0 0 0 0 0 0 0 0 0 0 27.7893 0 0 0 0 0 0 0 0 0 0 0 0 0 0 27.7893 0 0 0 0 0 0 0 0 0 0 0 0 0 0 35.5756 28.6316 0 0 0 0 0 0 0 0 0 0 0 0 0 0 22.3651 0 0 0 0 0 0 0 0 0 0 0 0 0 0 22.3651 0 0 0 0 0 0 0 0 0 0 0 0 0 0 22.3651 0 0 0 0 0 0 0 0 0 0 0 0 0 0 22.3651 0 0 0 0 0 0 0 0 0 0 0 0 0 0 22.3651 0 0 0 0 0 0 0 0 0 0 0 0 0 0 22.3651 0 0 0 0 0 0 0 0 0 0 0 0 0 0 22.3651 0 0 0 0 0 0 0 0 0 0 0 0 0 0 22.3651 0 0 0 0 0 0 0 0 0 0 0 0 0 0 22.3651 0 0 0 0 0 0 0 0 0 0 0 0 0 0 22.3651 0 0 0 0 0 0 0 0 0 0 0 0 0 0 22.3651 0 0 0 0 0 0 0 0 0 0 0 0 0 0 22.3651 0 0 0 0 0 0 0 0 0 0 0 0 0 0 22.3651 0 0 0 0 0 0 0 0 0 0 0 0 0 0 22.3651 0 0 0 0 0 0 0 0 0 0 0 0 0 0 22.3651 0 0 0 0 0 0 0 0 0 0 0 0 0 0 22.3651 0 0 0 0 0 0 0 0 0 0 0 0 0 0 22.3651 0 0 0 0 0 0 0 0 0 0 0 0 0 0 22.3651 0 0 0 0 0 0 0 0 0 0 0 0 0 0 22.3651 0 0 0 0 0 0 0 0 0 0 0 0 0 0 22.3651 0 0 0 0 0 0 0 0 0 0 0 0 0 0 22.3651 0 0 0 0 0 0 0 0 0 0 0 0 0 0 22.3651 0 0 0 0 0 0 0 0 0 0 0 0 0 0 22.3651 0 0 0 0 0 0 0 0 0 0 0 0 0 0 22.3651 0 0 0 0 0 0 0 0 0 0 0 0 0 0 22.3651 0 0 0 0 0 0 0 0 0 0 0 0 0 0 22.3651 0 0 0 0 0 0 0 0 0 0 0 0 0 0 22.3651 0 0 0 0 0 0 0 0 0 0 0 0 0 0 22.3651 0 0 0 0 0 0 0 0 0 0 0 0 0 0 22.3651 0 0 0 0 0 0 0 0 0 0 0 0 0 0 22.3651 0 0 0 0 0 0 0 0 0 0 0 0 0 0 22.3651 0 0 0 0 0 0 0 0 0 0 0 0 0 0 22.3651 0 0 0 0 0 0 0 0 0 0 0 0 0 0 22.3651 0 0 0 0 0 0 0 0 0 0 0 0 0 0 28.6316 0 0 0 0 0 0 0 0 0 0 0 0 0 0 0 0 0 0 0 0 0 0 0 0 0 0 0 0 0 0 0 0 0 0 0 0 0 0 0 0 0 0 0 0 0 0 0 0 0 0 0 0 0 0 0 0 0 0 0 0 0 0 0 0 0 0 0 0 0 0 0 0 0 0 0 0 0 0 0 0 0 0 0 0 0 0 0 0 0 0 0 0 0 0 0 0 0 0 0 0 0 0 0 0 0 0 0 0 0 0 0 0 0 0 0 0 0 0 0 0 0 0 0 0 0 0 0 0 0 0 0 0 0 0 0 0 0 0 0 0 0 0 0 0 0 0 0 0 0 0 0 0 0 0 0 0 0 0 0 0 0 0 0 0 0 0 0 0 0 0 0 0 0 0 0 0 0 0 0 0 0 0 0 0 0 0 0 0 0 0 0 0 0 0 0 0 0 0 0 0 0 0 0 0 0 0 0 0 0 0 0 0 0 0 0 0 0 0 0 0 0 0 0 0 0 0 0 0 0 0 0 0 0 0 0 0 0 0 0 0 0 0 0 0 0 0 0 0 0 0 0 0 0 0 0 0 0 0 0 0 0 0 0 0 0 0 0 0 0 0 0 0 0 0 0 0 0 0 0 0 0 0 0 0 0 0 0 0 0 0 0 0 0 0 0 0 0 0 0 0 0 0 0 0 0 0 0 0 0 0 0 0 0 0 0 0 0 0 0 0 0 0 0 0 0 0 0 0 0 0 0 0 0 0 0 0 0 0 0 0 0 0 0 0 0 0 0 0 0 0 0 0 0 0 0 0 0 0 0 0 0 0 0 0 0 0 0 0 0 0 0 0 0 0 0 0 0 0 0 0 0 0 0 0 0 0 0 0 0 0 0 0 0 0 0 0 0 0 0 0 0 0 0 0 0 0 0 0 0 0 0 0 0 0 0 0 0 0 0 0 0 0 0 0 0 0 0 0 0 0 0 0 0 0 0 0 0 0 0 0 0 0 0 0 0 0 0 0 0 0 0 0 0 0 0 0 0 0 0 0 0 0 0 0 0 0 0 0 0 0 0 0 0 0 0 0 0 0 0 0 0 0 0 0 0 0 0 0 0 0 0 0 0 0 0 0 0 0 0 0 0 0 0 0 0 0 0 0 0 0 0 0 0 0 0 0 0 0 0 0 0 0 0 0 0 0 0 0 0 0 0 0 0 0 0 0 0 0 0 0 0 0 0 0 0 0 0 0 0 0 0 0 0 0 0 0 0 0 0 0 0 0 0 0 0 0 0 0 0 0 0 0 0 0 0 0 0 0 0 0 0 0 0 0 0 0 0 0 0 0 0 0 0 0 0 0 0 0 0 0 0 0 0 0 0 0 0 0 0 0 0 0 0 0 0 0 0 0 0 0 0 0 0 0 0 0 0 0 0 0 0 0 0 0 0 0 0 0 0 0 0 0 0 0 0 0 0 0 0 0 0 0 0 0 0 0 0 0 0 0 0 0 0 0 0 0 0 0 0 0 0 0 0 0 0 0 0 0 0 0 0 0 0 0 0 0 0 0 0 0 0 0 0 0 0 0 0 0 0 0 0 0 0 0 0 0 0 0 0 0 0 0 0 0 0 0 0 0 0 0 0 0 0 0 0 0 0 0 0 0 0 0 0 0 0 0 0 0 0 0 0 0 0 0 0 0 0 0 0 0 0 0 0 0 0 0 0 0 0 0 0 0 0 0 0 0 0 0 0 0 0 0 0 0 0 0 0 0 0 0 0 0 0 0 0 0 0 0 0 0 0 0 0 0 0 0 0 0 0 0 0 0 0 0 0 0 0 0 0 0 0 0 0 0 0 0 0 0 0 0 0 0 0 0 0 0 0 0 0 0 0 0 0 0 0 0 0 0 0 0 0 0 0 0 0 0 0 0 0 0 0 0 0 0 0 0 0 0 0 0 0 0 0 0 0 0 0 0 0 0 0 0 0 0 0 0 0 0 0 0 0 0 0 0 0 0 0 0 0 0 0 0 0 0 0 0 0 0 0 0 0 0 0 0 0 0 0 0 0 0 0 0 0 0 0 0 0 0 0 0 0 0 0 0 0 0 0 0 0 0 0 0 0 0 0 0 0 0 0 0 0 0 0 0 0 0 0 0 0 0 0 0 0 0 0 0 0 0 0 0 0 0 0 0 0 0 0 0 0 0 0 0 0 0 0 0 0 0 0 0 0 0 0 0 0 0 0 0 0 0 0 0 0 0 0 0 0 0 0 0 0 0 0 0 0 0 0 0 0 0 0 0 0 0 0 0 0 0 0 0 0 0 0 0 0 0 0 0 0 0 0 0 0 0 0 0 0 0 0 0 0 0 0 0 0 0 0 0 0 0 0 0 0 0 0 0 0 0 0 0 0 0 0 0 0 0 0 0 0 0 0 0 0 0 0 0 0 0 0 0 0 0 0 0 0 0 0 0 0 0 0 0 0 0 0 0 0 0 0 0 0 0 0 0 0 0 0 0 0 0 0 0 0 0 0 0 0 0 0 0 0 0 0 0 0 0 0 0 0 0 0 0 0 0 0 0 0 0 0 0 0 0 0 0 0 0 0 0 0 0 0 0 0 0 0 0 0 0 0 0 0 0 0 0 0 0 0 0 0 0 0 0 0 0 0 0 0 0 0 0 0 0 0 0 0 0 0 0 0 0 0 0 0 0 0 0 0 0 0 0 0 0 0 0 0 0 0 0 0 0 0 0 0 0 0 0 0 0 0 0 0 0 0 0 0 0 0 0 0 0 0 0 0 0 0 0 0 0 0 0 0 0 0 0 0 0 0 0 0 0 0 0 0 0 0 0 0 0 0 0 0 0 0 0 0 0 0 0 0 0 0 0 0 0 0 0 0 0 0 0 0 0 0 0 0 0 0 0 0 0 0 0 0 0 0 0 0 0 0 0 0 0 0 0 0 0 0 0 0 0 0 0 0 0 0 0 0 0 0 0 0 0 0 0 0 0 0 0 0 0 0 0 0 0 0 0 0 0 0 0 0 0 0 0 0 0 0 0 0 0 0 0 0 0 0 0 0 0 0 0 0 0 0 0 0 0 0 0 0 0 0 0 0 0 0 0 0 0 0 0 0 0 0 0 0 0 0 0 0 0 0 0 0 0 0 0 0 0 0 0 0 0 0 0 0 0 0 0 0 0 0 0 0 0 0 0 0 0 0 0 0 0 0 0 0 0 0 0 0 0 0 0 0 0 0 0 0 0 0 0 0 0 0 0 0 0 0 0 0 0 0 0 0 0 0 0 0 0 0 0 0 0 0 0 0 0 0 0 0 0 0 0 0 0 0 0 0 0 0 0 0 0 0 0 0 0 0 0 0 0 0 0 0 0 0 0 0 0 0 0 0 0 0 0 0 0 0 0 0 0 0 0 0 0 0 0 0 0 0 0 0 0 0 0 0 0 0 0 0 0 0 0 0 0 0 0 0 0 0 0 0 0 0 0 0 0 0 0 0 0 0 0 0 0 0 0 0 0 0 0 0 0 0 0 0 0 0 0 0 0 0 0 0 0 0 0 0 0 0 0 0 0 0 0 0 0 0 0 0 0 0 0 0 0 0 0 0 0 0 0 0 0 0 0 0 0 0 0 0 0 0 0 0 0 0 0 0 0 0 0 0 0 0 0 0 0 0 0 0 0 0 0 0 0 0 0 0 0 0 0 0 0 0 0 0 0 0 0 0 0 0 0 0 0 0 0 0 0 0 0 0 0 0 0 0 0 0 0 0 0 0 0 0 0 0 0 0 0 0 0 0 0 0 0 0 0 0 0 0 0 0 0 0 0 0 0 0 0 0 0 0 0 0 0 0 0 0 0 0 0 0 0 0 0 0 0 0 0 0 0 0 0 0 0 0 0 0 0 0 0 0 0 0 0 0 0 0 0 0 0 0 0 0 0 0 0 0 0 0 0 0 0 0 0 0 0 0 0 0 0 0 0 0 0 0 0 0 0 0 0 0 0 0 0 0 0 0 0 0 0 0 0 0 0 0 0 0 0 0 0 0 0 0 0 0 0 0 0 0 0 0 0 0 0 0 0 0 0 0 0 0 0 0 0 0 0 0 0 0 0 0 0 0 0 0 0 0 0 0 0 0 0 0 0 0 0 0 0 0 0 0 0 0 0 0 0 0 0 0 0 0 0 0 0 0 0 0 0 0 0 0 0 0 0 0 0 0 0 0 0 0 0 0 0 0 0 0 0 0 0 0 0 0 0 0 0 0 0 0 0 0 0 0 0 0 0 0 0 0 0 0 0 0 0 0 0 0 0 0 0 0 0 0 0 0 0 0 0 0 0 0 0 0 0 0 0 0 0 0 0 0 0 0 0 0 0 0 0 0 0 0 0 0 0 0 0 0 0 0 0 0 0 0 0 0 0 0 0 0 0 0 0 0 0 0 0 0 0 0 0 0 0 0 0 0 0 0 0 0 0 0 0 0 0 0 0 0 0 0 0 0 0 0 0 0 0 0 0 0 0 0 0 0 0 0 0 0 0 0 0 0 0 0 0 0 0 0 0 0 0 0 0 0 0 0 0 0 0 0 0 0 0 0 0 0 0 0 0 0 0 0 0 0 0 0 0 0 0 0 0 0 0 0 0 0 0 0 0 0 0 0 0 0 0 0 0 0 0 0 0 0 0 0 0 0 0 0 0 0 0 0 0 0 0 0 0 0 0 0 0 0 0 0 0 0 0 0 0 0 0 0 0 0 0 0 0 0 0 0 0 0 0 0 0 0 0 0 0 0 0 0 0 0 0 0 0 0 0 0 0 0 0 0 0 0 0 0 0 0 0 0 0 0 0 0 0 0 0 0 0 0 0 0 0 0 0 0 0 0 0 0 0 0 0 0 0 0 0 0 0 0 0 0 0 0 0 0 0 0 0 0 0 0 0 0 0 0 0 0 0 0 0 0 0 0 0 0 0 0 0 0 0 0 0 0 0 0 0 0 0 0 0 0 0 0 0 0 0 0 0 0 0 0 0 0 0 0 0 0 0 0 0 0 0 0 0 0 0 0 0 0 0 0 0 0 0 0 0 0 0 0 0 0 0 0 0 0 0 0 0 0 0 0 0 0 0 0 0 0 0 0 0 0 0 0 0 0 0 0 0 0 0 0 0 0 0 0 0 0 0 0 0 0 0 0 0 0 0 0 0 0 0 0 0 0 0 0 0 0 0 0 0 0 0 0 0 0 0 0 0 0 0 0 0 0 0 0 0 0 0 0 0 0 0 0 0 0 0 0 0 0 0 0 0 0 0 0 0 0 0 0 0 0 0 0 0 0 0 0 0 0 0 0 0 0 0 0 0 0 0 0 0 0 0 0 0 0 0 0 0 0 0 0 0 0 0 0 0 0 0 0 0 0 0 0 0 0 0 0 0 0 0 0 0 0 0 0 0 0 0 0 0 0 0 0 0 0 0 0 0 0 0 0 0 0 0 0 0 0 0 0 0 0 0 0 0 0 0 0 0 0 0 0 0 0 0 0 0 0 0 0 0 0 0 0 0 0 0 0 0 0 0 0 0 0 0 0 0 0 0 0 0 0 0 0 0 0 0 0 0 0 0 0 0 0 0 0 0 0 0 0 0 0 0 0 0 0 0 0 0 0 0 0 0 0 0 0 0 0 0 0 0 0 0 0 0 0 0 0 0 0 0 0 0 0 0 0 0 0 0 0 0 0 0 0 0 0 0 0 0 0 0 0 0 0 0 0 0 0 0 0 0 0 0 0 0 0 0 0 0 0 0 0 0 0 0 0 0 0 0 0 0 0 0 0 0 0 0 0 0 0 0 0 0 0 0 0 0 0 0 0 0 0 0 0 0 0 0 0 0 0 0 0 0 0 0 0 0 0 0 0 0 0 0 0 0 0 0 0 0 0 0 0 0 0 0 0 0 0 0 0 0 0 0 0 0 0 0 0 0 0 0 0 0 0 0 0 0 0 0 0 0 0 0 0 0 0 0 0 0 0 0 0 0 0 0 0 0 0 0 0 0 0 0 0 0 0 0 0 0 0 0 0 0 0 0 0 0 0 0 0 0 0 0 0 0 0 0 0 0 0 0 0 0 0 0 0 0 0 0 0 0 0 0 0 0 0 0 0 0 0 0 0 0 0 0 0 0 0 0 0 0 0 0 0 0 0 0 0 0 0 0 0 0 0 0 0 0 0 0 0 0 0 0 0 0 0 0 0 0 0 0 0 0 0 0 0 0 0 0 0 0 0 0 0 0 0 0 0 0 0 0 0 0 0 0 0 0 0 0 0 0 0 0 0 0 0 0 0 0 0 0 0 0 0 0 0 0 0 0 0 0 0 0 0 0 0 0 0 0 0 0 0 0 0 0 0 0 0 0 0 0 0 0 0 0 0 0 0 0 0 0 0 0 0 0 0 0 0 0 0 0 0 0 0 0 0 0 0 0 0 0 0 0 0 0 0 0 0 0 0 0 0 0 0 0 0 0 0 0 0 0 0 0 0 0 0 0 0 0 0 0 0 0 0 0 0 0 0 0 0 0 0 0 0 0 0 0 0 0 0 0 0 0 0 0 0 0 0 0 0 0 0 0 0 0 0 0 0 0 0 0 0 0 0 0 0 0 0 0 0 0 0 0 0 0 0 0 0 0 0 0 0 0 0 0 0 0 0 0 0 0 0 0 0 0 0 0 0 0 0 0 0 0 0 0 0 0 0 0 0 0 0 0 0 0 0 0 0 0 0 0 0 0 0 0 0 0 0 0 0 0 0 0 0 0 0 0 0 0 0 0 0 0 0 0 0 0 0 0 0 0 0 0 0 0 0 0 0 0 0 0 0 0 0 0 0 0 0 0 0 0 0 0 0 0 0 0 0 0 0 0 0 0 0 0 0 0 0 0 0 0 0 0 0 0 0 0 0 0 0 0 0 0 0 0 0 0 0 0 0 0 0 0 0 0 0 0 0 0 0 0 0 0 0 0 0 0 0 0 0 0 0 0 0 0 0 0 0 0 0 0 0 0 0 0 0 0 0 0 0 0 0 0 0 0 0 0 0 0 0 0 0 0 0 0 0 0 0 0 0 0 0 0 0 0 0 0 0 0 0 0 0 0 0 0 0 0 0 0 0 0 0 0 0 0 0 0 0 0 0 0 0 0 0 0 0 0 0 0 0 0 0 0 0 0 0 0 0 0 0 0 0 0 0 0 0 0 0 0 0 0 0 0 0 0 0 0 0 0 0 0 0 0 0 0 0 0 0 0 0 0 0 0 0 0 0 0 0 0 0 0 0 0 0 0 0 0 0 0 0 0 0 0 0 0 0 0 0 0 0 0 0 0 0 0 0 0 0 0 0 0 0 0 0 0 0 0 0 0 0 0 0 0 0 0 0 0 0 0 0 0 0 0 0 0 0 0 0 0 0 0 0 0 0 0 0 0 0 0 0 0 0 0 0 0 0 0 0 0 0 0 0 0 0 0 0 0 0 0 0 0 0 0 0 0 0 0 0 0 0 0 0 0 0 0 0 0 0 0 0 0 0 0 0 0 0 0 0 0 0 0 0 0 0 0 0 0 0 0 0 0 0 0 0 0 0 0 0 0 0 0 0 0 0 0 0 0 0 0 0 0 0 0 0 0 0 0 0 0 0 0 0 0 0 0 0 0 0 0 0 0 0 0 0 0 0 0 0 0 0 0 0 0 0 0 0 0 0 0 0 0 0 0 0 0 0 0 0 0 0 0 0 0 0 0 0 0 0 0 0 0 0 0 0 0 0 0 0 0 0 0 0 0 0 0 0 0 0 0 0 0 0 0 0 0 0 0 0 0 0 0 0 0 0 0 0 0 0 0 0 0 0 0 0 0 0 0 0 0 0 0 0 0 0 0 0 0 0 0 0 0 0 0 0 0 0 0 0 0 0 0 0 0 0 0 0 0 0 0 0 0 0 0 0 0 0 0 0 0 0 0 0 0 0 0 0 0 0 0 0 0 0 0 0 0 0 0 0 0 0 0 0 0 0 0 0 0 0 0 0 0 0 0 0 0 0 0 0 0 0 0 0 0 0 0 0 0 0 0 0 0 0 0 0 0 0 0 0 0 0 0 0 0 0 0 0 0 0 0 0 0 0 0 0 0 0 0 0 0 0 0 0 0 0 0 0 0 0 0 0 0 0 0 0 0 0 0 0 0 0 0 0 0 0 0 0 0 0 0 0 0 0 0 0 0 0 0 0 0 0 0 0 0 0 0 0 0 0 0 0 0 0 0 0 0 0 0 0 0 0 0 0 0 0 0 0 0 0 0 0 0 0 0 0 0 0 0 0 0 0 0 0 0 0 0 0 0 0 0 0 0 0 0 0 0 0 0 0 0 0 0 0 0 0 0 0 0 0 0 0 0 0 0 0 0 0 0 0 0 0 0 0 0 0 0 0 0 0 0 0 0 0 0 0 0 0 0 0 0 0 0 0 0 0 0 0 0 0 0 0 0 0 0 0 0 0 0 0 0 0 0 0 0 0 0 0 0 0 0 0 0 0 0 0 0 0 0 0 0 0 0 0 0 0 0 0 0 0 0 0 0 0 0 0 0 0 0 0 0 0 0 0 0 0 0 0 0 0 0 0 0 0 0 0 0 0 0 0 0 0 0 0 0 0 0 0 0 0 0 0 0 0 0 0 0 0 0 0 0 0 0 0 0 0 0 0 0 0 0 0 0 0 0 0 0 0 0 0 0 0 0 0 0 0 0 0 0 0 0 0 0 0 0 0 0 0 0 0 0 0 0 0 0 0 0 0 0 0 0 0 0 0 0 0 0 0 0 0 0 0 0 0 0 0 0 0 0 0 0 0 0 0 0 0 0 0 0 0 0 0 0 0 0 0 0 0 0 0 0 0 0 0 0 0 0 0 0 0 0 0 0 0 0 0 0 0 0 0 0 0 0 0 0 0 0 0 0 0 0 0 0 0 0 0 0 0 0 0 0 0 0 0 0 0 0 0 0 0 0 0 0 0 0 0 0 0 0 0 0 0 0 0 0 0 0 0 0 0 0 0 0 0 0 0 0 0 0 0 0 0 0 0 0 0 0 0 0 0 0 0 0 0 0 0 0 0 0 0 0 0 0 0 0 0 0 0 0 0 0 0 0 0 0 0 0 0 0 0 0 0 0 0 0 0 0 0 0 0 0 0 0 0 0 0 0 0 0 0 0 0 0 0 0 0 0 0 0 0 0 0 0 0 0 0 0 0 0 0 0 0 0 0 0 0 0 0 0 0 0 0 0 0 0 0 0 0 0 0 0 0 0 0 0 0 0 0 0 0 0 0 0 0 0 0 0 0 0 0 0 0 0 0 0 0 0 0 0 0 0 0 0 0 0 0 0 0 0 0 0 0 0 0 0 0 0 0 0 0 0 0 0 0 0 0 0 0 0 0 0 0 0 0 0 0 0 0 0 0 0 0 0 0 0 0 0 0 0 0 0 0 0 0 0 0 0 0 0 0 0 0 0 0 0 0 0 0 0 0 0 0 0 0 0 0 0 0 0 0 0 0 0 0 0 0 0 0 0 0 0 0 0 0 0 0 0 0 0 0 0 0 0 0 0 0 0 0 0 0 0 0 0 0 0 0 0 0 0 0 0 0 0 0 0 0 0 0 0 0 0 0 0 0 0 0 0 0 0 0 0 0 0 0 0 0 0 0 0 0 0 0 0 0 0 0 0 0 0 0 0 0 0 0 0 0 0 0 0 0 0 0 0 0 0 0 0 0 0 0 0 0 0 0 0 0 0 0 0 0 0 0 0 0 0 0 0 0 0 0 0 0 0 0 0 0 0 0 0 0 0 0 0 0 0 0 0 0 0 0 0 0 0 0 0 0 0 0 0 0 0 0 0 0 0 0 0 0 0 0 0 0 0 0 0 0 0 0 0 0 0 0 0 0 0 0 0 0 0 0 0 0 0 0 0 0 0 0 0 0 0 0 0 0 0 0 0 0 0 0 0 0 0 0 0 0 0 0 0 0 0 0 0 0 0 0 0 0 0 0 0 0 0 0 0 0 0 0 0 0 0 0 0 0 0 0 0 0 0 0 0 0 0 0 0 0 0 0 0 0 0 0 0 0 0 0 0 0 0 0 0 0 0 0 0 0 0 0 0 0 0 0 0 0 0 0 0 0 0 0 0 0 0 0 0 0 0 0 0 0 0 0 0 0 0 0 0 0 0 0 0 0 0 0 0 0 0 0 0 0 0 0 0 0 0 0 0 0 0 0 0 0 0 0 0 0 0 0 0 0 0 0 0 0 0 0 0 0 0 0 0 0 0 0 0 0 0 0 0 0 0 0 0 0 0 0 0 0 0 0 0 0 0 0 0 0 0 0 0 0 0 0 0 0 0 0 0 0 0 0 0 0 0 0 0 0 0 0 0 0 0 0 0 0 0 0 0 0 0 0 0 0 0 0 0 0 0 0 0 0 0 0 0 0 0 0 0 0 0 0 0 0 0 0 0 0 0 0 0 0 0 0 0 0 0 0 0 0 0 0 0 0 0 0 0 0 0 0 0 0 0 0 0 0 0 0 0 0 0 0 0 0 0 0 0 0 0 0 0 0 0 0 0 0 0 0 0 0 0 0 0 0 0 0 0 0 0 0 0 0 0 0 0 0 0 0 0 0 0 0 0 0 0 0 0 0 0 0 0 0 0 0 0 0 0 0 0 0 0 0 0 0 0 0 0 0 0 0 0 0 0 0 0 0 0 0 0 0 0 0 0 0 0 0 0 0 0 0 0 0 0 0 0 0 0 0 0 0 0 0 0 0 0 0 0 0 0 0 0 0 0 0 0 0 0 0 0 0 0 0 0 0 0 0 0 0 0 0 0 0 0 0 0 0 0 0 0 0 0 0 0 0 0 0 0 0 0 0 0 0 0 0 0 0 0 0 0 0 0 0 0 0 0 0 0 0 0 0 0 0 0 0 0 0 0 0 0 0 0 0 0 0 0 0 0 0 0 0 0 0 0 0 0 0 0 0 0 0 0 0 0 0 0 0 0 0 0 0 0 0 0 0 0 0 0 0 0 0 0 0 0 0 0 0 0 0 0 0 0 0 0 0 0 0 0 0 0 0 0 0 0 0 0 0 0 0 0 0 0 0 0 0 0 0 0 0 0 0 0 0 0 0 0 0 0 0 0 0 0 0 0 0 0 0 0 0 0 0 0 0 0 0 0 0 0 0 0 0 0 0 0 0 0 0 0 0 0 0 0 0 0 0 0 0 0 0 0 0 0 0 0 0 0 0 0 0 0 0 0 0 0 0 0 0 0 0 0 0 0 0 0 0 0 0 0 0 0 0 0 0 0 0 0 0 0 0 0 0 0 0 0 0 0 0 0 0 0 0 0 0 0 0 0 0 0 0 0 0 0 0 0 0 0 0 0 0 0 0 0 0 0 0 0 0 0 0 0 0 0 0 0 0 0 0 0 0 0 0 0 0 0 0 0 0 0 0 0 0 0 0 0 0 0 0 0 0 0 0 0 0 0 0 0 0 0 0 0 0 0 0 0 0 0 0 0 0 0 0 0 0 0 0 0 0 0 0 0 0 0 0 0 0 0 0 0 0 0 0 0 0 0 0 0 0 0 0 0 0 0 0 0 0 0 0 0 0 0 0 0 0 0 0 0 0 0 0 0 0 0 0 0 0 0 0 0 0 0 0 0 0 0 0 0 0 0 0 0 0 0 0 0 0 0 0 0 0 0 0 0 0 0 0 0 0 0 0 0 0 0 0 0 0 0 0 0 0 0 0 0 0 0 0 0 0 0 0 0 0 0 0 0 0 0 0 0 0 0 0 0 0 0 0 0 0 0 0 0 0 0 0 0 0 0 0 0 0 0 0 0 0 0 0 0 0 0 0 0 0 0 0 0 0 0 0 0 0 0 0 0 0 0 0 0 0 0 0 0 0 0 0 0 0 0 0 0 0 0 0 0 0 0 0 0 0 0 0 0 0 0 0 0 0 0 0 0 0 0 0 0 0 0 0 0 0 0 0 0 0 0 0 0 0 0 0 0 0 0 0 0 0 0 0 0 0 0 0 0 0 0 0 0 0 0 0 0 0 0 0 0 0 0 0 0 0 0 0 0 0 0 0 0 0 0 0 0 0 0 0 0 0 0 0 0 0 0 0 0 0 0 0 0 0 0 0 0 0 0 0 0 0 0 0 0 0 0 0 0 0 0 0 0 0 0 0 0 0 0 0 0 0 0 0 0 0 0 0 0 0 0 0 0 0 0 0 0 0 0 0 0 0 0 0 0 0 0 0 0 0 0 0 0 0 0 0 0 0 0 0 0 0 0 0 0 0 0 0 0 0 0 0 0 0 0 0 0 0 0 0 0 0 0 0 0 0 0 0 0 0 0 0 0 0 0 0 0 0 0 0 0 0 0 0 0 0 0 0 0 0 0 0 0 0 0 0 0 0 0 0 0 0 0 0 0 0 0 0 0 0 0 0 0 0 0 0 0 0 0 0 0 0 0 0 0 0 0 0 0 0 0 0 0 0 0 0 0 0 0 0 0 0 0 0 0 0 0 0 0 0 0 0 0 0 0 0 0 0 0 0 0 0 0 0 0 0 0 0 0 0 0 0 0 0 0 0 0 0 0 0 0 0 0 0 0 0 0 0 0 0 0 0 0 0 0 0 0 0 0 0 0 0 0 0 0 0 0 0 0 0 0 0 0 0 0 0 0 0 0 0 0 0 0 0 0 0 0 0 0 0 0 0 0 0 0 0 0 0 0 0 0 0 0 0 0 0 0 0 0 0 0 0 0 0 0 0 0 0 0 0 0 0 0 0 0 0 0 0 0 0 0 0 0 0 0 0 0 0 0 0 0 0 0 0 0 0 0 0 0 0 0 0 0 0 0 0 0 0 0 0 0 0 0 0 0 0 0 0 0 0 0 0 0 0 0 0 0 0 0 0 0 0 0 0 0 0 0 0 0 0 0 0 0 0 0 0 0 0 0 0 0 0 0 0 0 0 0 0 0 0 0 0 0 0 0 0 0 0 0 0 0 0 0 0 0 0 0 0 0 0 0 0 0 0 0 0 0 0 0 0 0 0 0 0 0 0 0 0 0 0 0 0 0 0 0 0 0 0 0 0 0 0 0 0 0 0 0 0 0 0 0 0 0 0 0 0 0 0 0 0 0 0 0 0 0 0 0 0 0 0 0 0 0 0 0 0 0 0 0 0 0 0 0 0 0 0 0 0 0 0 0 0 0 0 0 0 0 0 0 0 0 0 0 0 0 0 0 0 0 0 0 0 0 0 0 0 0 0 0 0 0 0 0 0 0 0 0 0 0 0 0 0 0 0 0 0 0 0 0 0 0 0 0 0 0 0 0 0 0 0 0 0 0 0 0 0 0 0 0 0 0 0 0 0 0 0 0 0 0 0 0 0 0 0 0 0 0 0 0 0 0 0 0 0 0 0 0 0 0 0 0 0 0 0 0 0 0 0 0 0 0 0 0 0 0 0 0 0 0 0 0 0 0 0 0 0 0 0 0 0 0 0 0 0 0 0 0 0 0 0 0 0 0 0 0 0 0 0 0 0 0 0 0 0 0 0 0 0 0 0 0 0 0 0 0 0 0 0 0 0 0 0 0 0 0 0 0 0 0 0 0 0 0 0 0 0 0 0 0 0 0 0 0 0 0 0 0 0 0 0 0 0 0 0 0 0 0 0 0 0 0 0 0 0 0 0 0 0 0 0 0 0 0 0 0 0 0 0 0 0 0 0 0 0 0 0 0 0 0 0 0 0 0 0 0 0 0 0 0 0 0 0 0 0 0 0 0 0 0 0 0 0 0 0 0 0 0 0 0 0 0 0 0 0 0 0 0 0 0 0 0 0 0 0 0 0 0 0 0 0 0 0 0 0 0 0 0 0 0 0 0 0 0 0 0 0 0 0 0 0 0 0 0 0 0 0 0 0 0 0 0 0 0 0 0 0 0 0 0 0 0 0 0 0 0 0 0 0 0 0 0 0 0 0 0 0 0 0 0 0 0 0 0 0 0 0 0 0 0 0 0 0 0 0 0 0 0 0 0 0 0 0 0 0 0 0 0 0 0 0 0 0 0 0 0 0 0 0 0 0 0 0 0 0 0 0 0 0 0 0 0 0 0 0 0 0 0 0 0 0 0 0 0 0 0 0 0 0 0 0 0 0 0 0 0 0 0 0 0 0 0 0 0 0 0 0 0 0 0 0 0 0 0 0 0 0 0 0 0 0 0 0 0 0 0 0 0 0 0 0 0 0 0 0 0 0 0 0 0 0 0 0 0 0 0 0 0 0 0 0 0 0 0 0 0 0 0 0 0 0 0 0 0 0 0 0 0 0 0 0 0 0 0 0 0 0 0 0 0 0 0 0 0 0 0 0 0 0 0 0 0 0 0 0 0 0 0 0 0 0 0 0 0 0 0 0 0 0 0 0 0 0 0 0 0 0 0 0 0 0 0 0 0 0 0 0 0 0 0 0 0 0 0 0 0 0 0 0 0 0 0 0 0 0 0 0 0 0 0 0 0 0 0 0 0 0 0 0 0 0 0 0 0 0 0 0 0 0 0 0 0 0 0 0 0 0 0 0 0 0 0 0 0 0 0 0 0 0 0 0 0 0 0 0 0 0 0 0 0 0 0 0 0 0 0 0 0 0 0 0 0 0 0 0 0 0 0 0 0 0 0 0 0 0 0 0 0 0 0 0 0 0 0 0 0 0 0 0 0 0 0 0 0 0 0 0 0 0 0 0 0 0 0 0 0 0 0 0 0 0 0 0 0 0 0 0 0 0 0 0 0 0 0 0 0 0 0 0 0 0 0 0 0 0 0 0 0 0 0 0 0 0 0 0 0 0 0 0 0 0 0 0 0 0 0 0 0 0 0 0 0 0 0 0 0 0 0 0 0 0 0 0 0 0 0 0 0 0 0 0 0 0 0 0 0 0 0 0 0 0 0 0 0 0 0 0 0 0 0 0 0 0 0 0 0 0 0 0 0 0 0 0 0 0 0 0 0 0 0 0 0 0 0 0 0 0 0 0 0 0 0 0 0 0 0 0 0 0 0 0 0 0 0 0 0 0 0 0 0 0 0 0 0 0 0 0 0 0 0 0 0 0 0 0 0 0 0 0 0 0 0 0 0 0 0 0 0 0 0 0 0 0 0 0 0 0 0 0 0 0 0 0 0 0 0 0 0 0 0 0 0 0 0 0 0 0 0 0 0 0 0 0 0 0 0 0 0 0 0 0 0 0 0 0 0 0 0 0 0 0 0 0 0 0 0 0 0 0 0 0 0 0 0 0 0 0 0 0 0 0 0 0 0 0 0 0 0 0 0 0 0 0 0 0 0 0 0 0 0 0 0 0 0 0 0 0 0 0 0 0 0 0 0 0 0 0 0 0 0 0 0 0 0 0 0 0 0 0 0 0 0 0 0 0 0 0 0 0 0 0 0 0 0 0 0 0 0 0 0 0 0 0 0 0 0 0 0 0 0 0 0 0 0 0 0 0 0 0 0 0 0 0 0 0 0 0 0 0 0 0 0 0 0 0 0 0 0 0 0 0 0 0 0 0 0 0 0 0 0 0 0 0 0 0 0 0 0 0 0 0 0 0 0 0 0 0 0 0 0 0 0 0 0 0 0 0 0 0 0 0 0 0 0 0 0 0 0 0 0 0 0 0 0 0 0 0 0 0 0 0 0 0 0 0 0 0 0 0 0 0 0 0 0 0 0 0 0 0 0 0 0 0 0 0 0 0 0 0 0 0 0 0 0 0 0 0 0 0 0 0 0 0 0 0 0 0 0 0 0 0 0 0 0 0 0 0 0 0 0 0 0 0 0 0 0 0 0 0 0 0 0 0 0 0 0 0 0 0 0 0 0 0 0 0 0 0 0 0 0 0 0 0 0 0 0 0 0 0 0 0 0 0 0 0 0 0 0 0 0 0 0 0 0 0 0 0 0 0 0 0 0 0 0 0 0 0 0 0 0 0 0 0 0 0 0 0 0 0 0 0 0 0 0 0 0 0 0 0 0 0 0 0 0 0 0 0 0 0 0 0 0 0 0 0 0 0 0 0 0 0 0 0 0 0 0 0 0 0 0 0 0 0 0 0 0 0 0 0 0 0 0 0 0 0 0 0 0 0 0 0 0 0 0 0 0 0 0 0 0 0 0 0 0 0 0 0 0 0 0 0 0 0 0 0 0 0 0 0 0 0 0 0 0 0 0 0 0 0 0 0 0 0 0 0 0 0 0 0 0 0 0 0 0 0 0 0 0 0 0 0 0 0 0 0 0 0 0 0 0 0 0 0 0 0 0 0 0 0 0 0 0 0 0 0 0 0 0 0 0 0 0 0 0 0 0 0 0 0 0 0 0 0 0 0 0 0 0 0 0 0 0 0 0 0 0 0 0 0 0 0 0 0 0 0 0 0 0 0 0 0 0 0 0 0 0 0 0 0 0 0 0 0 0 0 0 0 0 0 0 0 0 0 0 0 0 0 0 0 0 0 0 0 0 0 0 0 0 0 0 0 0 0 0 0 0 0 0 0 0 0 0 0 0 0 0 0 0 0 0 0 0 0 0 0 0 0 0 0 0 0 0 0 0 0 0 0 0 0 0 0 0 0 0 0 0 0 0 0 0 0 0 0 0 0 0 0 0 0 0 0 0 0 0 0 0 0 0 0 0 0 0 0 0 0 0 0 0 0 0 0 0 0 0 0 0 0 0 0 0 0 0 0 0 0 0 0 0 0 0 0 0 0 0 0 0 0 0 0 0 0 0 0 0 0 0 0 0 0 0 0 0 0 0 0 0 0 0 0 0 0 0 0 0 0 0 0 0 0 0 0 0 0 0 0 0 0 0 0 0 0 0 0 0 0 0 0 0 0 0 0 0 0 0 0 0 0 0 0 0 0 0 0 0 0 0 0 0 0 0 0 0 0 0 0 0 0 0 0 0 0 0 0 0 0 0 0 0 0 0 0 0 0 0 0 0 0 0 0 0 0 0 0 0 0 0 0 0 0 0 0 0 0 0 0 0 0 0 0 0 0 0 0 0 0 0 0 0 0 0 0 0 0 0 0 0 0 0 0 0 0 0 0 0 0 0 0 0 0 0 0 0 0 0 0 0 0 0 0 0 0 0 0 0 0 0 0 0 0 0 0 0 0 0 0 0 0 0 0 0 0 0 0 0 0 0 0 0 0 0 0 0 0 0 0 0 0 0 0 0 0 0 0 0 0 0 0 0 0 0 0 0 0 0 0 0 0 0 0 0 0 0 0 0 0 0 0 0 0 0 0 0 0 0 0 0 0 0 0 0 0 0 0 0 0 0 0 0 0 0 0 0 0 0 0 0 0 0 0 0 0 0 0 0 0 0 0 0 0 0 0 0 0 0 0 0 0 0 0 0 0 0 0 0 0 0 0 0 0 0 0 0 0 0 0 0 0 0 0 0 0 0 0 0 0 0 0 0 0 0 0 0 0 0 0 0 0 0 0 0 0 0 0 0 0 0 0 0 0 0 0 0 0 0 0 0 0 0 0 0 0 0 0 0 0 0 0 0 0 0 0 0 0 0 0 0 0 0 0 0 0 0 0 0 0 0 0 0 0 0 0 0 0 0 0 0 0 0 0 0 0 0 0 0 0 0 0 0 0 0 0 0 0 0 0 0 0 0 0 0 0 0 0 0 0 0 0 0 0 0 0 0 0 0 0 0 0 0 0 0 0 0 0 0 0 0 0 0 0 0 0 0 0 0 0 0 0 0 0 0 0 0 0 0 0 0 0 0 0 0 0 0 0 0 0 0 0 0 0 0 0 0 0 0 0 0 0 0 0 0 0 0 0 0 0 0 0 0 0 0 0 0 0 0 0 0 0 0 0 0 0 0 0 0 0 0 0 0 0 0 0 0 0 0 0 0 0 0 0 0 0 0 0 0 0 0 0 0 0 0 0 0 0 0 0 0 0 0 0 0 0 0 0 0 0 0 0 0 0 0 0 0 0 0 0 0 0 0 0 0 0 0 0 0 0 0 0 0 0 0 0 0 0 0 0 0 0 0 0 0 0 0 0 0 0 0 0 0 0 0 0 0 0 0 0 0 0 0 0 0 0 0 0 0 0 0 0 0 0 0 0 0 0 0 0 0 0 0 0 0 0 0 0 0 0 0 0 0 0 0 0 0 0 0 0 0 0 0 0 0 0 0 0 0 0 0 0 0 0 0 0 0 0 0 0 0 0 0 0 0 0 0 0 0 0 0 0 0 0 0 0 0 0 0 0 0 0 0 0 0 0 0 0 0 0 0 0 0 0 0 0 0 0 0 0 0 0 0 0 0 0 0 0 0 0 0 0 0 0 0 0 0 0 0 0 0 0 0 0 0 0 0 0 0 0 0 0 0 0 0 0 0 0 0 0 0 0 0 0 0 0 0 0 0 0 0 0 0 0 0 0 0 0 0 0 0 0 0 0 0 0 0 0 0 0 0 0 0 0 0 0 0 0 0 0 0 0 0 0 0 0 0 0 0 0 0 0 0 0 0 0 0 0 0 0 0 0 0 0 0 0 0 0 0 0 0 0 0 0 0 0 0 0 0 0 0 0 0 0 0 0 0 0 0 0 0 0 0 0 0 0 0 0 0 0 0 0 0 0 0 0 0 0 0 0 0 0 0 0 0 0 0 0 0 0 0 0 0 0 0 0 0 0 0 0 0 0 0 0 0 0 0 0 0 0 0 0 0 0 0 0 0 0 0 0 0 0 0 0 0 0 0 0 0 0 0 0 0 0 0 0 0 0 0 0 0 0 0 0 0 0 0 0 0 0 0 0 0 0 0 0 0 0 0 0 0 0 0 0 0 0 0 0 0 0 0 0 0 0 0 0 0 0 0 0 0 0 0 0 0 0 0 0 0 0 0 0 0 0 0 0 0 0 0 0 0 0 0 0 0 0 0 0 0 0 0 0 0 0 0 0 0 0 0 0 0 0 0 0 0 0 0 0 0 0 0 0 0 0 0 0 0 0 0 0 0 0 0 0 0 0 0 0 0 0 0 0 0 0 0 0 0 0 0 0 0 0 0 0 0 0 0 0 0 0 0 0 0 0 0 0 0 0 0 0 0 0 0 0 0 0 0 0 0 0 0 0 0 0 0 0 0 0 0 0 0 0 0 0 0 0 0 0 0 0 0 0 0 0 0 0 0 0 0 0 0 0 0 0 0 0 0 0 0 0 0 0 0 0 0 0 0 0 0 0 0 0 0 0 0 0 0 0 0 0 0 0 0 0 0 0 0 0 0 0 0 0 0 0 0 0 0 0 0 0 0 0 0 0 0 0 0 0 0 0 0 0 0 0 0 0 0 0 0 0 0 0 0 0 0 0 0 0 0 0 0 0 0 0 0 0 0 0 0 0 0 0 0 0 0 0 0 0 0 0 0 0 0 0 0 0 0 0 0 0 0 0 0 0 0 0 0 0 0 0 0 0 0 0 0 0 0 0 0 0 0 0 0 0 0 0 0 0 0 0 0 0 0 0 0 0 0 0 0 0 0 0 0 0 0 0 0 0 0 0 0 0 0 0 0 0 0 0 0 0 0 0 0 0 0 0 0 0 0 0 0 0 0 0 0 0 0 0 0 0 0 0 0 0 0 0 0 0 0 0 0 0 0 0 0 0 0 0 0 0 0 0 0 0 0 0 0 0 0 0 0 0 0 0 0 0 0 0 0 0 0 0 0 0 0 0 0 0 0 0 0 0 0 0 0 0 0 0 0 0 0 0 0 0 0 0 0 0 0 0 0 0 0 0 0 0 0 0 0 0 0 0 0 0 0 0 0 0 0 0 0 0 0 0 0 0 0 0 0 0 0 0 0 0 0 0 0 0 0 0 0 0 0 0 0 0 0 0 0 0 0 0 0 0 0 0 0 0 0 0 0 0 0 0 0 0 0 0 0 0 0 0 0 0 0 0 0 0 0 0 0 0 0 0 0 0 0 0 0 0 0 0 0 0 0 0 0 0 0 0 0 0 0 0 0 0 0 0 0 0 0 0 0 0 0 0 0 0 0 0 0 0 0 0 0 0 0 0 0 0 0 0 0 0 0 0 0 0 0 0 0 0 0 0 0 0 0 0 0 0 0 0 0 0 0 0 0 0 0 0 0 0 0 0 0 0 0 0 0 0 0 0 0 0 0 0 0 0 0 0 0 0 0 0 0 0 0 0 0 0 0 0 0 0 0 0 0 0 0 0 0 0 0 0 0 0 0 0 0 0 0 0 0 0 0 0 0 0 0 0 0 0 0 0 0 0 0 0 0 0 0 0 0 0 0 0 0 0 0 0 0 0 0 0 0 0 0 0 0 0 0 0 0 0 0 0 0 0 0 0 0 0 0 0 0 0 0 0 0 0 0 0 0 0 0 0 0 0 0 0 0 0 0 0 0 0 0 0 0 0 0 0 0 0 0 0 0 0 0 0 0 0 0 0 0 0 0 0 0 0 0 0 0 0 0 0 0 0 0 0 0 0 0 0 0 0 0 0 0 0 0 0 0 0 0 0 0 0 0 0 0 0 0 0 0 0 0 0 0 0 0 0 0 0 0 0 0 0 0 0 0 0 0 0 0 0 0 0 0 0 0 0 0 0 0 0 0 0 0 0 0 0 0 0 0 0 0 0 0 0 0 0 0 0 0 0 0 0 0 0 0 0 0 0 0 0 0 0 0 0 0 0 0 0 0 0 0 0 0 0 0 0 0 0 0 0 0 0 0 0 0 0 0 0 0 0 0 0 0 0 0 0 0 0 0 0 0 0 0 0 0 0 0 0 0 0 0 0 0 0 0 0 0 0 0 0 0 0 0 0 0 0 0 0 0 0 0 0 0 0 0 0 0 0 0 0 0 0 0 0 0 0 0 0 0 0 0 0 0 0 0 0 0 0 0 0 0 0 0 0 0 0 0 0 0 0 0 0 0 0 0 0 0 0 0 0 0 0 0 0 0 0 0 0 0 0 0 0 0 0 0 0 0 0 0 0 0 0 0 0 0 0 0 0 0 0 0 0 0 0 0 0 0 0 0 0 0 0 0 0 0 0 0 0 0 0 0 0 0 0 0 0 0 0 0 0 0 0 0 0 0 0 0 0 0 0 0 0 0 0 0 0 0 0 0 0 0 0 0 0 0 0 0 0 0 0 0 0 0 0 0 0 0 0 0 0 0 0 0 0 0 0 0 0 0 0 0 0 0 0 0 0 0 0 0 0 0 0 0 0 0 0 0 0 0 0 0 0 0 0 0 0 0 0 0 0 0 0 0 0 0 0 0 0 0 0 0 0 0 0 0 0 0 0 0 0 0 0 0 0 0 0 0 0 0 0 0 0 0 0 0 0 0 0 0 0 0 0 0 0 0 0 0 0 0 0 0 0 0 0 0 0 0 0 0 0 0 0 0 0 0 0 0 0 0 0 0 0 0 0 0 0 0 0 0 0 0 0 0 0 0 0 0 0 0 0 0 0 0 0 0 0 0 0 0 0 0 0 0 0 0 0 0 0 0 0 0 0 0 0 0 0 0 0 0 0 0 0 0 0 0 0 0 0 0 0 0 0 0 0 0 0 0 0 0 0 0 0 0 0 0 0 0 0 0 0 0 0 0 0 0 0 0 0 0 0 0 0 0 0 0 0 0 0 0 0 0 0 0 0 0 0 0 0 0 0 0 0 0 0 0 0 0 0 0 0 0 0 0 0 0 0 0 0 0 0 0 0 0 0 0 0 0 0 0 0 0 0 0 0 0 0 0 0 0 0 0 0 0 0 0 0 0 0 0 0 0 0 0 0 0 0 0 0 0 0 0 0 0 0 0 0 0 0 0 0 0 0 0 0 0 0 0 0 0 0 0 0 0 0 0 0 0 0 0 0 0 0 0 0 0 0 0 0 0 0 0 0 0 0 0 0 0 0 0 0 0 0 0 0 0 0 0 0 0 0 0 0 0 0 0 0 0 0 0 0 0 0 0 0 0 0 0 0 0 0 0 0 0 0 0 0 0 0 0 0 0 0 0 0 0 0 0 0 0 0 0 0 0 0 0 0 0 0 0 0 0 0 0 0 0 0 0 0 0 0 0 0 0 0 0 0 0 0 0 0 0 0 0 0 0 0 0 0 0 0 0 0 0 0 0 0 0 0 0 0 0 0 0 0 0 0 0 0 0 0 0 0 0 0 0 0 0 0 0 0 0 0 0 0 0 0 0 0 0 0 0 0 0 0 0 0 0 0 0 0 0 0 0 0 0 0 0 0 0 0 0 0 0 0 0 0 0 0 0 0 0 0 0 0 0 0 0 0 0 0 0 0 0 0 0 0 0 0 0 0 0 0 0 0 0 0 0 0 0 0 0 0 0 0 0 0 0 0 0 0 0 0 0 0 0 0 0 0 0 0 0 0 0 0 0 0 0 0 0 0 0 0 0 0 0 0 0 0 0 0 0 0 0 0 0 0 0 0 0 0 0 0 0 0 0 0 0 0 0 0 0 0 0 0 0 0 0 0 0 0 0 0 0 0 0 0 0 0 0 0 0 0 0 0 0 0 0 0 0 0 0 0 0 0 0 0 0 0 0 0 0 0 0 0 0 0 0 0 0 0 0 0 0 0 0 0 0 0 0 0 0 0 0 0 0 0 0 0 0 0 0 0 0 0 0 0 0 0 0 0 0 0 0 0 0 0 0 0 0 0 0 0 0 0 0 0 0 0 0 0 0 0 0 0 0 0 0 0 0 0 0 0 0 0 0 0 0 0 0 0 0 0 0 0 0 0 0 0 0 0 0 0 0 0 0 0 0 0 0 0 0 0 0 0 0 0 0 0 0 0 0 0 0 0 0 0 0 0 0 0 0 0 0 0 0 0 0 0 0 0 0 0 0 0 0 0 0 0 0 0 0 0 0 0 0 0 0 0 0 0 0 0 0 0 0 0 0 0 0 0 0 0 0 0 0 0 0 0 0 0 0 0 0 0 0 0 0 0 0 0 0 0 0 0 0 0 0 0 0 0 0 0 0 0 0 0 0 0 0 0 0 0 0 0 0 0 0 0 0 0 0 0 0 0 0 0 0 0 0 0 0 0 0 0 0 0 0 0 0 0 0 0 0 0 0 0 0 0 0 0 0 0 0 0 0 0 0 0 0 0 0 0 0 0 0 0 0 0 0 0 0 0 0 0 0 0 0 0 0 0 0 0 0 0 0 0 0 0 0 0 0 0 0 0 0 0 0 0 0 0 0 0 0 0 0 0 0 0 0 0 0 0 0 0 0 0 0 0 0 0 0 0 0 0 0 0 0 0 0 0 0 0 0 0 0 0 0 0 0 0 0 0 0 0 0 0 0 0 0 0 0 0 0 0 0 0 0 0 0 0 0 0 0 0 0 0 0 0 0 0 0 0 0 0 0 0 0 0 0 0 0 0 0 0 0 0 0 0 0 0 0 0 0 0 0 0 0 0 0 0 0 0 0 0 0 0 0 0 0 0 0 0 0 0 0 0 0 0 0 0 0 0 0 0 0 0 0 0 0 0 0 0 0 0 0 0 0 0 0 0 0 0 0 0 0 0 0 0 0 0 0 0 0 0 0 0 0 0 0 0 0 0 0 0 0 0 0 0 0 0 0 0 0 0 0 0 0 0 0 0 0 0 0 0 0 0 0 0 0 0 0 0 0 0 0 0 0 0 0 0 0 0 0 0 0 0 0 0 0 0 0 0 0 0 0 0 0 0 0 0 0 0 0 0 0 0 0 0 0 0 0 0 0 0 0 0 0 0 0 0 0 0 0 0 0 0 0 0 0 0 0 0 0 0 0 0 0 0 0 0 0 0 0 0 0 0 0 0 0 0 0 0 0 0 0 0 0 0 0 0 0 0 0 0 0 0 0 0 0 0 0 0 0 0 0 0 0 0 0 0 0 0 0 0 0 0 0 0 0 0 0 0 0 0 0 0 0 0 0 0 0 0 0 0 0 0 0 0 0 0 0 0 0 0 0 0 0 0 0 0 0 0 0 0 0 0 0 0 0 0 0 0 0 0 0 0 0 0 0 0 0 0 0 0 0 0 0 0 0 0 0 0 0 0 0 0 0 0 0 0 0 0 0 0 0 0 0 0 0 0 0 0 0 0 0 0 0 0 0 0 0 0 0 0 0 0 0 0 0 0 0 0 0 0 0 0 0 0 0 0 0 0 0 0 0 0 0 0 0 0 0 0 0 0 0 0 0 0 0 0 0 0 0 0 0 0 0 0 0 0 0 0 0 0 0 0 0 0 0 0 0 0 0 0 0 0 0 0 0 0 0 0 0 0 0 0 0 0 0 0 0 0 0 0 0 0 0 0 0 0 0 0 0 0 0 0 0 0 0 0 0 0 0 0 0 0 0 0 0 0 0 0 0 0 0 0 0 0 0 0 0 0 0 0 0 0 0 0 0 0 0 0 0 0 0 0 0 0 0 0 0 0 0 0 0 0 0 0 0 0 0 0 0 0 0 0 0 0 0 0 0 0 0 0 0 0 0 0 0 0 0 0 0 0 0 0 0 0 0 0 0 0 0 0 0 0 0 0 0 0 0 0 0 0 0 0 0 0 0 0 0 0 0 0 0 0 0 0 0 0 0 0 0 0 0 0 0 0 0 0 0 0 0 0 0 0 0 0 0 0 0 0 0 0 0 0 0 0 0 0 0 0 0 0 0 0 0 0 0 0 0 0 0 0 0 0 0 0 0 0 0 0 0 0 0 0 0 0 0 0 0 0 0 0 0 0 0 0 0 0 0 0 0 0 0 0 0 0 0 0 0 0 0 0 0 0 0 0 0 0 0 0 0 0 0 0 0 0 0 0 0 0 0 0 0 0 0 0 0 0 0 0 0 0 0 0 0 0 0 0 0 0 0 0 0 0 0 0 0 0 0 0 0 0 0 0 0 0 0 0 0 0 0 0 0 0 0 0 0 0 0 0 0 0 0 0 0 0 0 0 0 0 0 0 0 0 0 0 0 0 0 0 0 0 0 0 0 0 0 0 0 0 0 0 0 0 0 0 0 0 0 0 0 0 0 0 0 0 0 0 0 0 0 0 0 0 0 0 0 0 0 0 0 0 0 0 0 0 0 0 0 0 0 0 0 0 0 0 0 0 0 0 0 0 0 0 0 0 0 0 0 0 0 0 0 0 0 0 0 0 0 0 0 0 0 0 0 0 0 0 0 0 0 0 0 0 0 0 0 0 0 0 0 0 0 0 0 0 0 0 0 0 0 0 0 0 0 0 0 0 0 0 0 0 0 0 0 0 0 0 0 0 0 0 0 0 0 0 0 0 0 0 0 0 0 0 0 0 0 0 0 0 0 0 0 0 0 0 0 0 0 0 0 0 0 0 0 0 0 0 0 0 0 0 0 0 0 0 0 0 0 0 0 0 0 0 0 0 0 0 0 0 0 0 0 0 0 0 0 0 0 0 0 0 0 0 0 0 0 0 0 0 0 0 0 0 0 0 0 0 0 0 0 0 0 0 0 0 0 0 0 0 0 0 0 0 0 0 0 0 0 0 0 0 0 0 0 0 0 0 0 0 0 0 0 0 0 0 0 0 0 0 0 0 0 0 0 0 0 0 0 0 0 0 0 0 0 0 0 0 0 0 0 0 0 0 0 0 0 0 0 0 0 0 0 0 0 0 0 0 0 0 0 0 0 0 0 0 0 0 0 0 0 0 0 0 0 0 0 0 0 0 0 0 0 0 0 0 0 0 0 0 0 0 0 0 0 0 0 0 0 0 0 0 0 0 0 0 0 0 0 0 0 0 0 0 0 0 0 0 0 0 0 0 0 0 0 0 0 0 0 0 0 0 0 0 0 0 0 0 0 0 0 0 0 0 0 0 0 0 0 0 0 0 0 0 0 0 0 0 0 0 0 0 0 0 0 0 0 0 0 0 0 0 0 0 0 0 0 0 0 0 0 0 0 0 0 0 0 0 0 0 0 0 0 0 0 0 0 0 0 0 0 0 0 0 0 0 0 0 0 0 0 0 0 0 0 0 0 0 0 0 0 0 0 0 0 0 0 0 0 0 0 0 0 0 0 0 0 0 0 0 0 0 0 0 0 0 0 0 0 0 0 0 0 0 0 0 0 0 0 0 0 0 0 0 0 0 0 0 0 0 0 0 0 0 0 0 0 0 0 0 0 0 0 0 0 0 0 0 0 0 0 0 0 0 0 0 0 0 0 0 0 0 0 0 0 0 0 0 0 0 0 0 0 0 0 0 0 0 0 0 0 0 0 0 0 0 0 0 0 0 0 0 0 0 0 0 0 0 0 0 0 0 0 0 0 0 0 0 0 0 0 0 0 0 0 0 0 0 0 0 0 0 0 0 0 0 0 0 0 0 0 0 0 0 0 0 0 0 0 0 0 0 0 0 0 0 0 0 0 0 0 0 0 0 0 0 0 0 0 0 0 0 0 0 0 0 0 0 0 0 0 0 0 0 0 0 0 0 0 0 0 0 0 0 0 0 0 0 0 0 0 0 0 0 0 0 0 0 0 0 0 0 0 0 0 0 0 0 0 0 0 0 0 0 0 0 0 0 0 0 0 0 0 0 0 0 0 0 0 0 0 0 0 0 0 0 0 0 0 0 0 0 0 0 0 0 0 0 0 0 0 0 0 0 0 0 0 0 0 0 0 0 0 0 0 0 0 0 0 0 0 0 0 0 0 0 0 0 0 0 0 0 0 0 0 0 0 0 0 0 0 0 0 0 0 0 0 0 0 0 0 0 0 0 0 0 0 0 0 0 0 0 0 0 0 0 0 0 0 0 0 0 0 0 0 0 0 0 0 0 0 0 0 0 0 0 0 0 0 0 0 0 0 0 0 0 0 0 0 0 0 0 0 0 0 0 0 0 0 0 0 0 0 0 0 0 0 0 0 0 0 0 0 0 0 0 0 0 0 0 0 0 0 0 0 0 0 0 0 0 0 0 0 0 0 0 0 0 0 0 0 0 0 0 0 0 0 0 0 0 0 0 0 0 0 0 0 0 0 0 0 0 0 0 0 0 0 0 0 0 0 0 0 0 0 0 0 0 0 0 0 0 0 0 0 0 0 0 0 0 0 0 0 0 0 0 0 0 0 0 0 0 0 0 0 0 0 0 0 0 0 0 0 0 0 0 0 0 0 0 0 0 0 0 0 0 0 0 0 0 0 0 0 0 0 0 0 0 0 0 0 0 0 0 0 0 0 0 0 0 0 0 0 0 0 0 0 0 0 0 0 0 0 0 0 0 0 0 0 0 0 0 0 0 0 0 0 0 0 0 0 0 0 0 0 0 0 0 0 0 0 0 0 0 0 0 0 0 0 0 0 0 0 0 0 0 0 0 0 0 0 0 0 0 0 0 0 0 0 0 0 0 0 0 0 0 0 0 0 0 0 0 0 0 0 0 0 0 0 0 0 0 0 0 0 0 0 0 0 0 0 0 0 0 0 0 0 0 0 0 0 0 0 0 0 0 0 0 0 0 0 0 0 0 0 0 0 0 0 0 0 0 0 0 0 0 0 0 0 0 0 0 0 0 0 0 0 0 0 0 0 0 0 0 0 0 0 0 0 0 0 0 0 0 0 0 0 0 0 0 0 0 0 0 0 0 0 0 0 0 0 0 0 0 0 0 0 0 0 0 0 0 0 0 0 0 0 0 0 0 0 0 0 0 0 0 0 0 0 0 0 0 0 0 0 0 0 0 0 0 0 0 0 0 0 0 0 0 0 0 0 0 0 0 0 0 0 0 0 0 0 0 0 0 0 0 0 0 0 0 0 0 0 0 0 0 0 0 0 0 0 0 0 0 0 0 0 0 0 0 0 0 0 0 0 0 0 0 0 0 0 0 0 0 0 0 0 0 0 0 0 0 0 0 0 0 0 0 0 0 0 0 0 0 0 0 0 0 0 0 0 0 0 0 0 0 0 0 0 0 0 0 0 0 0 0 0 0 0 0 0 0 0 0 0 0 0 0 0 0 0 0 0 0 0 0 0 0 0 0 0 0 0 0 0 0 0 0 0 0 0 0 0 0 0 0 0 0 0 0 0 0 0 0 0 0 0 0 0 0 0 0 0 0 0 0 0 0 0 0 0 0 0 0 0 0 0 0 0 0 0 0 0 0 0 0 0 0 0 0 0 0 0 0 0 0 0 0 0 0 0 0 0 0 0 0 0 0 0 0 0 0 0 0 0 0 0 0 0 0 0 0 0 0 0 0 0 0 0 0 0 0 0 0 0 0 0 0 0 0 0 0 0 0 0 0 0 0 0 0 0 0 0 0 0 0 0 0 0 0 0 0 0 0 0 0 0 0 0 0 0 0 0 0 0 0 0 0 0 0 0 0 0 0 0 0 0 0 0 0 0 0 0 0 0 0 0 0 0 0 0 0 0 0 0 0 0 0 0 0 0 0 0 0 0 0 0 0 0 0 0 0 0 0 0 0 0 0 0 0 0 0 0 0 0 0 0 0 0 0 0 0 0 0 0 0 0 0 0 0 0 0 0 0 0 0 0 0 0 0 0 0 0 0 0 0 0 0 0 0 0 0 0 0 0 0 0 0 0 0 0 0 0 0 0 0 0 0 0 0 0 0 0 0 0 0 0 0 0 0 0 0 0 0 0 0 0 0 0 0 0 0 0 0 0 0 0 0 0 0 0 0 0 0 0 0 0 0 0 0 0 0 0 0 0 0 0 0 0 0 0 0 0 0 0 0 0 0 0 0 0 0 0 0 0 0 0 0 0 0 0 0 0 0 0 0 0 0 0 0 0 0 0 0 0 0 0 0 0 0 0 0 0 0 0 0 0 0 0 0 0 0 0 0 0 0 0 0 0 0 0 0 0 0 0 0 0 0 0 0 0 0 0 0 0 0 0 0 0 0 0 0 0 0 0 0 0 0 0 0 0 0 0 0 0 0 0 0 0 0 0 0 0 0 0 0 0 0 0 0 0 0 0 0 0 0 0 0 0 0 0 0 0 0 0 0 0 0 0 0 0 0 0 0 0 0 0 0 0 0 0 0 0 0 0 0 0 0 0 0 0 0 0 0 0 0 0 0 0 0 0 0 0 0 0 0 0 0 0 0 0 0 0 0 0 0 0 0 0 0 0 0 0 0 0 0 0 0 0 0 0 0 0 0 0 0 0 0 0 0 0 0 0 0 0 0 0 0 0 0 0 0 0 0 0 0 0 0 0 0 0 0 0 0 0 0 0 0 0 0 0 0 0 0 0 0 0 0 0 0 0 0 0 0 0 0 0 0 0 0 0 0 0 0 0 0 0 0 0 0 0 0 0 0 0 0 0 0 0 0 0 0 0 0 0 0 0 0 0 0 0 0 0 0 0 0 0 0 0 0 0 0 0 0 0 0 0 0 0 0 0 0 0 0 0 0 0 0 0 0 0 0 0 0 0 0 0 0 0 0 0 0 0 0 0 0 0 0 0 0 0 0 0 0 0 0 0 0 0 0 0 0 0 0 0 0 0 0 0 0 0 0 0 0 0 0 0 0 0 0 0 0 0 0 0 0 0 0 0 0 0 0 0 0 0 0 0 0 0 0 0 0 0 0 0 0 0 0 0 0 0 0 0 0 0 0 0 0 0 0 0 0 0 0 0 0 0 0 0 0 0 0 0 0 0 0 0 0 0 0 0 0 0 0 0 0 0 0 0 0 0 0 0 0 0 0 0 0 0 0 0 0 0 0 0 0 0 0 0 0 0 0 0 0 0 0 0 0 0 0 0 0 0 0 0 0 0 0 0 0 0 0 0 0 0 0 0 0 0 0 0 0 0 0 0 0 0 0 0 0 0 0 0 0 0 0 0 0 0 0 0 0 0 0 0 0 0 0 0 0 0 0 0 0 0 0 0 0 0 0 0 0 0 0 0 0 0 0 0 0 0 0 0 0 0 0 0 0 0 0 0 0 0 0 0 0 0 0 0 0 0 0 0 0 0 0 0 0 0 0 0 0 0 0 0 0 0 0 0 0 0 0 0 0 0 0 0 0 0 0 0 0 0 0 0 0 0 0 0 0 0 0 0 0 0 0 0 0 0 0 0 0 0 0 0 0 0 0 0 0 0 0 0 0 0 0 0 0 0 0 0 0 0 0 0 0 0 0 0 0 0 0 0 0 0 0 0 0 0 0 0 0 0 0 0 0 0 0 0 0 0 0 0 0 0 0 0 0 0 0 0 0 0 0 0 0 0 0 0 0 0 0 0 0 0 0 0 0 0 0 0 0 0 0 0 0 0 0 0 0 0 0 0 0 0 0 0 0 0 0 0 0 0 0 0 0 0 0 0 0 0 0 0 0 0 0 0 0 0 0 0 0 0 0 0 0 0 0 0 0 0 0 0 0 0 0 0 0 0 0 0 0 0 0 0 0 0 0 0 0 0 0 0 0 0
</DataArray>
<DataArray Name="PP" type="Float32" format="ascii" >
 0 0 0 0 0 0 0 0 0 0 0 0 0 0 0 0 0 0 0 0 0 0 0 0 0 0 0 0 0 0 0 0 0 0 0 0 0 0 0 0 0 0 0 0 0 0 0 0 0 0 0 0 0 0 0 0 0 0 0 0 0 0 0 0 0 0 0 0 0 0 0 0 0 0 0 0 0 0 0 0 0 0 0 0 0 0 0 0 0 0 0 0 0 0 0 0 0 0 0 0 0 0 0 0 0 0 0 0 0 0 0 0 0 0 0 0 0 0 0 0 0 0 0 0 0 0 0 0 0 0 0 0 0 0 0 0 0 0 0 0 0 0 0 0 0 0 0 0 0 0 0 0 0 0 0 0 0 0 0 0 0 0 0 0 0 0 0 0 0 0 0 0 0 0 0 0 0 0 0 0 0 0 0 0 0 0 0 0 0 0 0 0 0 0 0 0 0 0 0 0 0 0 0 0 0 0 0 0 0 0 0 0 0 0 0 0 0 0 0 0 0 0 0 0 0 0 0 0 0 0 0 0 0 0 0 0 0 0 0 0 0 0 0 0 0 0 0 0 0 0 0 0 0 0 0 0 0 0 0 0 0 0 0 0 0 0 0 0 0 0 0 0 0 0 0 0 0 0 0 0 0 0 0 0 0 0 0 0 0 0 0 0 0 0 0 0 0 0 0 0 0 0 0 0 0 0 0 0 0 0 0 0 0 0 0 0 0 0 0 0 0 0 0 0 0 0 0 0 0 0 0 0 0 0 0 0 0 0 0 0 0 0 0 0 0 0 0 0 0 0 0 0 0 0 0 0 0 0 0 0 0 0 0 0 0 0 0 0 0 0 0 0 0 0 0 0 0 0 0 0 0 0 0 0 0 0 0 0 0 0 0 0 0 0 0 0 0 0 0 0 0 0 0 0 0 0 0 0 0 0 0 0 0 0 0 0 0 0 0 0 0 0 0 0 0 0 0 0 0 0 0 0 0 0 0 0 0 0 0 0 0 0 0 0 0 0 0 0 0 0 0 0 0 0 0 0 0 0 0 0 0 0 0 0 0 0 0 0 0 0 0 0 0 0 0 0 0 0 0 0 0 0 0 0 0 0 0 0 0 0 0 0 0 0 0 0 0 0 0 0 0 0 0 0 0 0 0 0 0 0 0 0 0 0 0 0 0 0 0 0 0 0 0 0 0 0 0 0 0 0 0 0 0 0 0 0 0 0 0 0 0 0 0 0 0 0 0 0 0 0 0 0 0 0 0 0 0 0 0 0 0 0 0 0 0 0 0 0 0 0 0 0 0 0 0 0 0 0 0 0 0 0 0 0 0 0 0 0 0 0 0 0 0 0 0 0 0 0 0 0 0 0 0 0 0 0 0 0 0 0 0 0 0 0 0 0 0 0 0 0 0 0 0 0 0 0 0 0 0 0 0 0 0 0 0 0 0 0 0 0 0 0 0 0 0 0 0 0 0 0 0 0 0 0 0 0 0 0 0 0 0 0 0 0 0 0 0 0 0 0 0 0 0 0 0 0 0 0 0 0 0 0 0 0 0 0 0 0 0 0 0 0 0 0 0 0 0 0 0 0 0 0 0 0 0 0 0 0 0 0 0 0 0 0 0 0 0 0 0 0 0 0 0 0 0 0 0 0 0 0 0 0 0 0 0 0 0 0 0 0 0 0 0 0 0 0 0 0 0 0 0 0 0 0 0 0 0 0 0 0 0 0 0 0 0 0 0 0 0 0 0 0 0 0 0 0 0 0 0 0 0 0 0 0 0 0 0 0 0 0 0 0 0 0 0 0 0 0 0 0 0 0 0 0 0 0 0 0 0 0 0 0 0 0 0 0 0 0 0 0 0 0 0 0 0 0 0 0 0 0 0 0 0 0 0 0 0 0 0 0 0 0 0 0 0 0 0 0 0 0 0 0 0 0 0 0 0 0 0 0 0 0 0 0 0 0 0 0 0 0 0 0 0 0 0 0 0 0 0 0 0 0 0 0 0 0 0 0 0 0 0 0 0 0 0 0 0 0 0 0 0 0 0 0 0 0 0 0 0 0 0 0 0 0 0 0 0 0 0 0 0 0 0 0 0 0 0 0 0 0 0 0 0 0 0 0 0 0 0 0 0 0 0 0 0 0 0 0 0 0 0 0 0 0 0 0 0 0 0 0 0 0 0 0 0 0 0 0 0 0 0 0 0 0 0 0 0 0 0 0 0 0 0 0 0 0 0 0 0 0 0 0 0 0 0 0 0 0 0 0 0 0 0 0 0 0 0 0 0 0 0 0 0 0 0 0 0 0 0 0 0 0 0 0 0 0 0 0 0 0 0 0 0 0 0 0 0 0 0 0 0 0 0 0 0 0 0 0 0 0 0 0 0 0 0 0 0 0 0 0 0 0 0 0 0 0 0 0 0 0 0 0 0 0 0 0 0 0 0 0 0 0 0 0 0 0 0 0 0 0 0 0 0 0 0 0 0 0 0 0 0 0 0 0 0 0 0 0 0 0 0 0 0 0 0 0 0 0 0 0 0 0 0 0 0 0 0 0 0 0 0 0 0 0 0 0 0 0 0 0 0 0 0 0 0 0 0 0 0 0 0 0 0 0 0 0 0 0 0 0 0 0 0 0 0 0 0 0 0 0 0 0 0 0 0 0 0 0 0 0 0 0 0 0 0 0 0 0 0 0 0 0 0 0 0 0 0 0 0 0 0 0 0 0 0 0 0 0 0 0 0 0 0 0 0 0 0 0 0 0 0 0 0 0 0 0 0 0 0 0 0 0 0 0 0 0 0 0 0 0 0 0 0 0 0 0 0 0 0 0 0 0 0 0 0 0 0 0 0 0 0 0 0 0 0 0 0 0 0 0 0 0 0 0 0 0 0 0 0 0 0 0 0 0 0 0 0 0 0 0 0 0 0 0 0 0 0 0 0 0 0 0 0 0 0 0 0 0 0 0 0 0 0 0 0 0 0 0 0 0 0 0 0 0 0 0 0 0 0 0 0 0 0 0 0 0 0 0 0 0 0 0 0 0 0 0 0 0 0 0 0 0 0 0 0 0 0 0 0 0 0 0 0 0 0 0 0 0 0 0 0 0 0 0 0 0 0 0 0 0 0 0 0 0 0 0 0 0 0 0 0 0 0 0 0 0 0 0 0 0 0 0 0 0 0 0 0 0 0 0 0 0 0 0 0 0 0 0 0 0 0 0 0 0 0 0 0 0 0 0 0 0 0 0 0 0 0 0 0 0 0 0 0 0 0 0 0 0 0 0 0 0 0 0 0 0 0 0 0 0 0 0 0 0 0 0 0 0 0 0 0 0 0 0 0 0 0 0 0 0 0 0 0 0 0 0 0 0 0 0 0 0 0 0 0 0 0 0 0 0 0 0 0 0 0 0 0 0 0 0 0 0 0 0 0 0 0 0 0 0 0 0 0 0 0 0 0 0 0 0 0 0 0 0 0 0 0 0 0 0 0 0 0 0 0 0 0 0 0 0 0 0 0 0 0 0 0 0 0 0 0 0 0 0 0 0 0 0 0 0 0 0 0 0 0 0 0 0 0 0 0 0 0 0 0 0 0 0 0 0 0 0 0 0 0 0 0 0 0 0 0 0 0 0 0 0 0 0 0 0 0 0 0 0 0 0 0 0 0 0 0 0 0 0 0 0 0 0 0 0 0 0 0 0 0 0 0 0 0 0 0 0 0 0 0 0 0 0 0 0 0 0 0 0 0 0 0 0 0 0 0 0 0 0 0 0 0 0 0 0 0 0 0 0 0 0 0 0 0 0 0 0 0 0 0 0 0 0 0 0 0 0 0 0 0 0 0 0 0 0 0 0 0 0 0 0 0 0 0 0 0 0 0 0 0 0 0 0 0 0 0 0 0 0 0 0 0 0 0 0 0 0 0 0 0 0 0 0 0 0 0 0 0 0 0 0 0 0 0 0 0 0 0 0 0 0 0 0 0 0 0 0 0 0 0 0 0 0 0 0 0 0 0 0 0 0 0 0 0 0 0 0 0 0 0 0 0 0 0 0 0 0 0 0 0 0 0 0 0 0 0 0 0 0 0 0 0 0 0 0 0 0 0 0 0 0 0 0 0 0 0 0 0 0 0 0 0 0 0 0 0 0 0 0 0 0 0 0 0 0 0 0 0 0 0 0 0 0 0 0 0 0 0 0 0 0 0 0 0 0 0 0 0 0 0 0 0 0 0 0 0 0 0 0 0 0 0 0 0 0 0 0 0 0 0 0 0 0 0 0 0 0 0 0 0 0 0 0 0 0 0 0 0 0 0 0 0 0 0 0 0 0 0 0 0 0 0 0 0 0 0 0 0 0 0 0 0 0 0 0 0 0 0 0 0 0 0 0 0 0 0 0 0 0 0 0 0 0 0 0 0 0 0 0 0 0 0 0 0 0 0 0 0 0 0 0 0 0 0 0 0 0 0 0 0 0 0 0 0 0 0 0 0 0 0 0 0 0 0 0 0 0 0 0 0 0 0 0 0 0 0 0 0 0 0 0 0 0 0 0 0 0 0 0 0 0 0 0 0 0 0 0 0 0 0 0 0 0 0 0 0 0 0 0 0 0 0 0 0 0 0 0 0 0 0 0 0 0 0 0 0 0 0 0 0 0 0 0 0 0 0 0 0 0 0 0 0 0 0 0 0 0 0 0 0 0 0 0 0 0 0 0 0 0 0 0 0 0 0 0 0 0 0 0 0 0 0 0 0 0 0 0 0 0 0 0 0 0 0 0 0 0 0 0 0 0 0 0 0 0 0 0 0 0 0 0 0 0 0 0 0 0 0 0 0 0 0 0 0 0 0 0 0 0 0 0 0 0 0 0 0 0 0 0 0 0 0 0 0 0 0 0 0 0 0 0 0 0 0 0 0 0 0 0 0 0 0 0 0 0 0 0 0 0 0 0 0 0 0 0 0 0 0 0 0 0 0 0 0 0 0 0 0 0 0 0 0 0 0 0 0 0 0 0 0 0 0 0 0 0 0 0 0 0 0 0 0 0 0 0 0 0 0 0 0 0 0 0 0 0 0 0 0 0 0 0 0 0 0 0 0 0 0 0 0 0 0 0 0 0 0 0 0 0 0 0 0 0 0 0 0 0 0 0 0 0 0 0 0 0 0 0 0 0 0 0 0 0 0 0 0 0 0 0 0 0 0 0 0 0 0 0 0 0 0 0 0 0 0 0 0 0 0 0 0 0 0 0 0 0 0 0 0 0 0 0 0 0 0 0 0 0 0 0 0 0 0 0 0 0 0 0 0 0 0 0 0 0 0 0 0 0 0 0 0 0 0 0 0 0 0 0 0 0 0 0 0 0 0 0 0 0 0 0 0 0 0 0 0 0 0 0 0 0 0 0 0 0 0 0 0 0 0 0 0 0 0 0 0 0 0 0 0 0 0 0 0 0 0 0 0 0 0 0 0 0 0 0 0 0 0 0 0 0 0 0 0 0 0 0 0 0 0 0 0 0 0 0 0 0 0 0 0 0 0 0 0 0 0 0 0 0 0 0 0 0 0 0 0 0 0 0 0 0 0 0 0 0 0 0 0 0 0 0 0 0 0 0 0 0 0 0 0 0 0 0 0 0 0 0 0 0 0 0 0 0 0 0 0 0 0 0 0 0 0 0 0 0 0 0 0 0 0 0 0 0 0 0 0 0 0 0 0 0 0 0 0 0 0 0 0 0 0 0 0 0 0 0 0 0 0 0 0 0 0 0 0 0 0 0 0 0 0 0 0 0 0 0 0 0 0 0 0 0 0 0 0 0 0 0 0 0 0 0 0 0 0 0 0 0 0 0 0 0 0 0 0 0 0 0 0 0 0 0 0 0 0 0 0 0 0 0 0 0 0 0 0 0 0 0 0 0 0 0 0 0 0 0 0 0 0 0 0 0 0 0 0 0 0 0 0 0 0 0 0 0 0 0 0 0 0 0 0 0 0 0 0 0 0 0 0 0 0 0 0 0 0 0 0 0 0 0 0 0 0 0 0 0 0 0 0 0 0 0 0 0 0 0 0 0 0 0 0 0 0 0 0 0 0 0 0 0 0 0 0 0 0 0 0 0 0 0 0 0 0 0 0 0 0 0 0 0 0 0 0 0 0 0 0 0 0 0 0 0 0 0 0 0 0 0 0 0 0 0 0 0 0 0 0 0 0 0 0 0 0 0 0 0 0 0 0 0 0 0 0 0 0 0 0 0 0 0 0 0 0 0 0 0 0 0 0 0 0 0 0 0 0 0 0 0 0 0 0 0 0 0 0 0 0 0 0 0 0 0 0 0 0 0 0 0 0 0 0 0 0 0 0 0 0 0 0 0 0 0 0 0 0 0 0 0 0 0 0 0 0 0 0 0 0 0 0 0 0 0 0 0 0 0 0 0 0 0 0 0 0 0 0 0 0 0 0 0 0 0 0 0 0 0 0 0 0 0 0 0 0 0 0 0 0 0 0 0 0 0 0 0 0 0 0 0 0 0 0 0 0 0 0 0 0 0 0 0 0 0 0 0 0 0 0 0 0 0 0 0 0 0 0 0 0 0 0 0 0 0 0 0 0 0 0 0 0 0 0 0 0 0 0 0 0 0 0 0 0 0 0 0 0 0 0 0 0 0 0 0 0 0 0 0 0 0 0 0 0 0 0 0 0 0 0 0 0 0 0 0 0 0 0 0 0 0 0 0 0 0 0 0 0 0 0 0 0 0 0 0 0 0 0 0 0 0 0 0 0 0 0 0 0 0 0 0 0 0 0 0 0 0 0 0 0 0 0 0 0 0 0 0 0 0 0 0 0 0 0 0 0 0 0 0 0 0 0 0 0 0 0 0 0 0 0 0 0 0 0 0 0 0 0 0 0 0 0 0 0 0 0 0 0 0 0 0 0 0 0 0 0 0 0 0 0 0 0 0 0 0 0 0 0 0 0 0 0 0 0 0 0 0 0 0 0 0 0 0 0 0 0 0 0 0 0 0 0 0 0 0 0 0 0 0 0 0 0 0 0 0 0 0 0 0 0 0 0 0 0 0 0 0 0 0 0 0 0 0 0 0 0 0 0 0 0 0 0 0 0 0 0 0 0 0 0 0 0 0 0 0 0 0 0 0 0 0 0 0 0 0 0 0 0 0 0 0 0 0 0 0 0 0 0 0 0 0 0 0 0 0 0 0 0 0 0 0 0 0 0 0 0 0 0 0 0 0 0 0 0 0 0 0 0 0 0 0 0 0 0 0 0 0 0 0 0 0 0 0 0 0 0 0 0 0 0 0 0 0 0 0 0 0 0 0 0 0 0 0 0 0 0 0 0 0 0 0 0 0 0 0 0 0 0 0 0 0 0 0 0 0 0 0 0 0 0 0 0 0 0 0 0 0 0 0 0 0 0 0 0 0 0 0 0 0 0 0 0 0 0 0 0 0 0 0 0 0 0 0 0 0 0 0 0 0 0 0 0 0 0 0 0 0 0 0 0 0 0 0 0 0 0 0 0 0 0 0 0 0 0 0 0 0 0 0 0 0 0 0 0 0 0 0 0 0 0 0 0 0 0 0 0 0 0 0 0 0 0 0 0 0 0 0 0 0 0 0 0 0 0 0 0 0 0 0 0 0 0 0 0 0 0 0 0 0 0 0 0 0 0 0 0 0 0 0 0 0 0 0 0 0 0 0 0 0 0 0 0 0 0 0 0 0 0 0 0 0 0 0 0 0 0 0 0 0 0 0 0 0 0 0 0 0 0 0 0 0 0 0 0 0 0 0 0 0 0 0 0 0 0 0 0 0 0 0 0 0 0 0 0 0 0 0 0 0 0 0 0 0 0 0 0 0 0 0 0 0 0 0 0 0 0 0 0 0 0 0 0 0 0 0 0 0 0 0 0 0 0 0 0 0 0 0 0 0 0 0 0 0 0 0 0 0 0 0 0 0 0 0 0 0 0 0 0 0 0 0 0 0 0 0 0 0 0 0 0 0 0 0 0 0 0 0 0 0 0 0 0 0 0 0 0 0 0 0 0 0 0 0 0 0 0 0 0 0 0 0 0 0 0 0 0 0 0 0 0 0 0 0 0 0 0 0 0 0 0 0 0 0 0 0 0 0 0 0 0 0 0 0 0 0 0 0 0 0 0 0 0 0 0 0 0 0 0 0 0 0 0 0 0 0 0 0 0 0 0 0 0 0 0 0 0 0 0 0 0 0 0 0 0 0 0 0 0 0 0 0 0 0 0 0 0 0 0 0 0 0 0 0 0 0 0 0 0 0 0 0 0 0 0 0 0 0 0 0 0 0 0 0 0 0 0 0 0 0 0 0 0 0 0 0 0 0 0 0 0 0 0 0 0 0 0 0 0 0 0 0 0 0 0 0 0 0 0 0 0 0 0 0 0 0 0 0 0 0 0 0 0 0 0 0 0 0 0 0 0 0 0 0 0 0 0 0 0 0 0 0 0 0 0 0 0 0 0 0 0 0 0 0 0 0 0 0 0 0 0 0 0 0 0 0 0 0 0 0 0 0 0 0 0 0 0 0 0 0 0 0 0 0 0 0 0 0 0 0 0 0 0 0 0 0 0 0 0 0 0 0 0 0 0 0 0 0 0 0 0 0 0 0 0 0 0 0 0 0 0 0 0 0 0 0 0 0 0 0 0 0 0 0 0 0 0 0 0 0 0 0 0 0 0 0 0 0 0 0 0 0 0 0 0 0 0 0 0 0 0 0 0 0 0 0 0 0 0 0 0 0 0 0 0 0 0 0 0 0 0 0 0 0 0 0 0 0 0 0 0 0 0 0 0 0 0 0 0 0 0 0 0 0 0 0 0 0 0 0 0 0 0 0 0 0 0 0 0 0 0 0 0 0 0 0 0 0 0 0 0 0 0 0 0 0 0 0 0 0 0 0 0 0 0 0 0 0 0 0 0 0 0 0 0 0 0 0 0 0 0 0 0 0 0 0 0 0 0 0 0 0 0 0 0 0 0 0 0 0 0 0 0 0 0 0 0 0 0 0 0 0 0 0 0 0 0 0 0 0 0 0 0 0 0 0 0 0 0 0 0 0 0 0 0 0 0 0 0 0 0 0 0 0 0 0 0 0 0 0 0 0 0 0 0 0 0 0 0 0 0 0 0 0 0 0 0 0 0 0 0 0 0 0 0 0 0 0 0 0 0 0 0 0 0 0 0 0 0 0 0 0 0 0 0 0 0 0 0 0 0 0 0 0 0 0 0 0 0 0 0 0 0 0 0 0 0 0 0 0 0 0 0 0 0 0 0 0 0 0 0 0 0 0 0 0 0 0 0 0 0 0 0 0 0 0 0 0 0 0 0 0 0 0 0 0 0 0 0 0 0 0 0 0 0 0 0 0 0 0 0 0 0 0 0 0 0 0 0 0 0 0 0 0 0 0 0 0 0 0 0 0 0 0 0 0 0 0 0 0 0 0 0 0 0 0 0 0 0 0 0 0 0 0 0 0 0 0 0 0 0 0 0 0 0 0 0 0 0 0 0 0 0 0 0 0 0 0 0 0 0 0 0 0 0 0 0 0 0 0 0 0 0 0 0 0 0 0 0 0 0 0 0 0 0 0 0 0 0 0 0 0 0 0 0 0 0 0 0 0 0 0 0 0 0 0 0 0 0 0 0 0 0 0 0 0 0 0 0 0 0 0 0 0 0 0 0 0 0 0 0 0 0 0 0 0 0 0 0 0 0 0 0 0 0 0 0 0 0 0 0 0 0 0 0 0 0 0 0 0 0 0 0 0 0 0 0 0 0 0 0 0 0 0 0 0 0 0 0 0 0 0 0 0 0 0 0 0 0 0 0 0 0 0 0 0 0 0 0 0 0 0 0 0 0 0 0 0 0 0 0 0 0 0 0 0 0 0 0 0 0 0 0 0 0 0 0 0 0 0 0 0 0 0 0 0 0 0 0 0 0 0 0 0 0 0 0 0 0 0 0 0 0 0 0 0 0 0 0 0 0 0 0 0 0 0 0 0 0 0 0 0 0 0 0 0 0 0 0 0 0 0 0 0 0 0 0 0 0 0 0 0 0 0 0 0 0 0 0 0 0 0 0 0 0 0 0 0 0 0 0 0 0 0 0 0 0 0 0 0 0 0 0 0 0 0 0 0 0 0 0 0 0 0 0 0 0 0 0 0 0 0 0 0 0 0 0 0 0 0 0 0 0 0 0 0 0 0 0 0 0 0 0 0 0 0 0 0 0 0 0 0 0 0 0 0 0 0 0 0 0 0 0 0 0 0 0 0 0 0 0 0 0 0 0 0 0 0 0 0 0 0 0 0 0 0 0 0 0 0 0 0 0 0 0 0 0 0 0 0 0 0 0 0 0 0 0 0 0 0 0 0 0 0 0 0 0 0 0 0 0 0 0 0 0 0 0 0 0 0 0 0 0 0 0 0 0 0 0 0 0 0 0 0 0 0 0 0 0 0 0 0 0 0 0 0 0 0 0 0 0 0 0 0 0 0 0 0 0 0 0 0 0 0 0 0 0 0 0 0 0 0 0 0 0 0 0 0 0 0 0 0 0 0 0 0 0 0 0 0 0 0 0 0 0 0 0 0 0 0 0 0 0 0 0 0 0 0 0 0 0 0 0 0 0 0 0 0 0 0 0 0 0 0 0 0 0 0 0 0 0 0 0 0 0 0 0 0 0 0 0 0 0 0 0 0 0 0 0 0 0 0 0 0 0 0 0 0 0 0 0 0 0 0 0 0 0 0 0 0 0 0 0 0 0 0 0 0 0 0 0 0 0 0 0 0 0 0 0 0 0 0 0 0 0 0 0 0 0 0 0 0 0 0 0 0 0 0 0 0 0 0 0 0 0 0 0 0 0 0 0 0 0 0 0 0 0 0 0 0 0 0 0 0 0 0 0 0 0 0 0 0 0 0 0 0 0 0 0 0 0 0 0 0 0 0 0 0 0 0 0 0 0 0 0 0 0 0 0 0 0 0 0 0 0 0 0 0 0 0 0 0 0 0 0 0 0 0 0 0 0 0 0 0 0 0 0 0 0 0 0 0 0 0 0 0 0 0 0 0 0 0 0 0 0 0 0 0 0 0 0 0 0 0 0 0 0 0 0 0 0 0 0 0 0 0 0 0 0 0 0 0 0 0 0 0 0 0 0 0 0 0 0 0 0 0 0 0 0 0 0 0 0 0 0 0 0 0 0 0 0 0 0 0 0 0 0 0 0 0 0 0 0 0 0 0 0 0 0 0 0 0 0 0 0 0 0 0 0 0 0 0 0 0 0 0 0 0 0 0 0 0 0 0 0 0 0 0 0 0 0 0 0 0 0 0 0 0 0 0 0 0 0 0 0 0 0 0 0 0 0 0 0 0 0 0 0 0 0 0 0 0 0 0 0 0 0 0 0 0 0 0 0 0 0 0 0 0 0 0 0 0 0 0 0 0 0 0 0 0 0 0 0 0 0 0 0 0 0 0 0 0 0 0 0 0 0 0 0 0 0 0 0 0 0 0 0 0 0 0 0 0 0 0 0 0 0 0 0 0 0 0 0 0 0 0 0 0 0 0 0 0 0 0 0 0 0 0 0 0 0 0 0 0 0 0 0 0 0 0 0 0 0 0 0 0 0 0 0 0 0 0 0 0 0 0 0 0 0 0 0 0 0 0 0 0 0 0 0 0 0 0 0 0 0 0 0 0 0 0 0 0 0 0 0 0 0 0 0 0 0 0 0 0 0 0 0 0 0 0 0 0 0 0 0 0 0 0 0 0 0 0 0 0 0 0 0 0 0 0 0 0 0 0 0 0 0 0 0 0 0 0 0 0 0 0 0 0 0 0 0 0 0 0 0 0 0 0 0 0 0 0 0 0 0 0 0 0 0 0 0 0 0 0 0 0 0 0 0 0 0 0 0 0 0 0 0 0 0 0 0 0 0 0 0 0 0 0 0 0 0 0 0 0 0 0 0 0 0 0 0 0 0 0 0 0 0 0 0 0 0 0 0 0 0 0 0 0 0 0 0 0 0 0 0 0 0 0 0 0 0 0 0 0 0 0 0 0 0 0 0 0 0 0 0 0 0 0 0 0 0 0 0 0 0 0 0 0 0 0 0 0 0 0 0 0 0 0 0 0 0 0 0 0 0 0 0 0 0 0 0 0 0 0 0 0 0 0 0 0 0 0 0 0 0 0 0 0 0 0 0 0 0 0 0 0 0 0 0 0 0 0 0 0 0 0 0 0 0 0 0 0 0 0 0 0 0 0 0 0 0 0 0 0 0 0 0 0 0 0 0 0 0 0 0 0 0 0 0 0 0 0 0 0 0 0 0 0 0 0 0 0 0 0 0 0 0 0 0 0 0 0 0 0 0 0 0 0 0 0 0 0 0 0 0 0 0 0 0 0 0 0 0 0 0 0 0 0 0 0 0 0 0 0 0 0 0 0 0 0 0 0 0 0 0 0 0 0 0 0 0 0 0 0 0 0 0 0 0 0 0 0 0 0 0 0 0 0 0 0 0 0 0 0 0 0 0 0 0 0 0 0 0 0 0 0 0 0 0 0 0 0 0 0 0 0 0 0 0 0 0 0 0 0 0 0 0 0 0 0 0 0 0 0 0 0 0 0 0 0 0 0 0 0 0 0 0 0 0 0 0 0 0 0 0 0 0 0 0 0 0 0 0 0 0 0 0 0 0 0 0 0 0 0 0 0 0 0 0 0 0 0 0 0 0 0 0 0 0 0 0 0 0 0 0 0 0 0 0 0 0 0 0 0 0 0 0 0 0 0 0 0 0 0 0 0 0 0 0 0 0 0 0 0 0 0 0 0 0 0 0 0 0 0 0 0 0 0 0 0 0 0 0 0 0 0 0 0 0 0 0 0 0 0 0 0 0 0 0 0 0 0 0 0 0 0 0 0 0 0 0 0 0 0 0 0 0 0 0 0 0 0 0 0 0 0 0 0 0 0 0 0 0 0 0 0 0 0 0 0 0 0 0 0 0 0 0 0 0 0 0 0 0 0 0 0 0 0 0 0 0 0 0 0 0 0 0 0 0 0 0 0 0 0 0 0 0 0 0 0 0 0 0 0 0 0 0 0 0 0 0 0 0 0 0 0 0 0 0 0 0 0 0 0 0 0 0 0 0 0 0 0 0 0 0 0 0 0 0 0 0 0 0 0 0 0 0 0 0 0 0 0 0 0 0 0 0 0 0 0 0 0 0 0 0 0 0 0 0 0 0 0 0 0 0 0 0 0 0 0 0 0 0 0 0 0 0 0 0 0 0 0 0 0 0 0 0 0 0 0 0 0 0 0 0 0 0 0 0 0 0 0 0 0 0 0 0 0 0 0 0 0 0 0 0 0 0 0 0 0 0 0 0 0 0 0 0 0 0 0 0 0 0 0 0 0 0 0 0 0 0 0 0 0 0 0 0 0 0 0 0 0 0 0 0 0 0 0 0 0 0 0 0 0 0 0 0 0 0 0 0 0 0 0 0 0 0 0 0 0 0 0 0 0 0 0 0 0 0 0 0 0 0 0 0 0 0 0 0 0 0 0 0 0 0 0 0 0 0 0 0 0 0 0 0 0 0 0 0 0 0 0 0 0 0 0 0 0 0 0 0 0 0 0 0 0 0 0 0 0 0 0 0 0 0 0 0 0 0 0 0 0 0 0 0 0 0 0 0 0 0 0 0 0 0 0 0 0 0 0 0 0 0 0 0 0 0 0 0 0 0 0 0 0 0 0 0 0 0 0 0 0 0 0 0 0 0 0 0 0 0 0 0 0 0 0 0 0 0 0 0 0 0 0 0 0 0 0 0 0 0 0 0 0 0 0 0 0 0 0 0 0 0 0 0 0 0 0 0 0 0 0 0 0 0 0 0 0 0 0 0 0 0 0 0 0 0 0 0 0 0 0 0 0 0 0 0 0 0 0 0 0 0 0 0 0 0 0 0 0 0 0 0 0 0 0 0 0 0 0 0 0 0 0 0 0 0 0 0 0 0 0 0 0 0 0 0 0 0 0 0 0 0 0 0 0 0 0 0 0 0 0 0 0 0 0 0 0 0 0 0 0 0 0 0 0 0 0 0 0 0 0 0 0 0 0 0 0 0 0 0 0 0 0 0 0 0 0 0 0 0 0 0 0 0 0 0 0 0 0 0 0 0 0 0 0 0 0 0 0 0 0 0 0 0 0 0 0 0 0 0 0 0 0 0 0 0 0 0 0 0 0 0 0 0 0 0 0 0 0 0 0 0 0 0 0 0 0 0 0 0 0 0 0 0 0 0 0 0 0 0 0 0 0 0 0 0 0 0 0 0 0 0 0 0 0 0 0 0 0 0 0 0 0 0 0 0 0 0 0 0 0 0 0 0 0 0 0 0 0 0 0 0 0 0 0 0 0 0 0 0 0 0 0 0 0 0 0 0 0 0 0 0 0 0 0 0 0 0 0 0 0 0 0 0 0 0 0 0 0 0 0 0 0 0 0 0 0 0 0 0 0 0 0 0 0 0 0 0 0 0 0 0 0 0 0 0 0 0 0 0 0 0 0 0 0 0 0 0 0 0 0 0 0 0 0 0 0 0 0 0 0 0 0 0 0 0 0 0 0 0 0 0 0 0 0 0 0 0 0 0 0 0 0 0 0 0 0 0 0 0 0 0 0 0 0 0 0 0 0 0 0 0 0 0 0 0 0 0 0 0 0 0 0 0 0 0 0 0 0 0 0 0 0 0 0 0 0 0 0 0 0 0 0 0 0 0 0 0 0 0 0 0 0 0 0 0 0 0 0 0 0 0 0 0 0 0 0 0 0 0 0 0 0 0 0 0 0 0 0 0 0 0 0 0 0 0 0 0 0 0 0 0 0 0 0 0 0 0 0 0 0 0 0 0 0 0 0 0 0 0 0 0 0 0 0 0 0 0 0 0 0 0 0 0 0 0 0 0 0 0 0 0 0 0 0 0 0 0 0 0 0 0 0 0 0 0 0 0 0 0 0 0 0 0 0 0 0 0 0 0 0 0 0 0 0 0 0 0 0 0 0 0 0 0 0 0 0 0 0 0 0 0 0 0 0 0 0 0 0 0 0 0 0 0 0 0 0 0 0 0 0 0 0 0 0 0 0 0 0 0 0 0 0 0 0 0 0 0 0 0 0 0 0 0 0 0 0 0 0 0 0 0 0 0 0 0 0 0 0 0 0 0 0 0 0 0 0 0 0 0 0 0 0 0 0 0 0 0 0 0 0 0 0 0 0 0 0 0 0 0 0 0 0 0 0 0 0 0 0 0 0 0 0 0 0 0 0 0 0 0 0 0 0 0 0 0 0 0 0 0 0 0 0 0 0 0 0 0 0 0 0 0 0 0 0 0 0 0 0 0 0 0 0 0 0 0 0 0 0 0 0 0 0 0 0 0 0 0 0 0 0 0 0 0 0 0 0 0 0 0 0 0 0 0 0 0 0 0 0 0 0 0 0 0 0 0 0 0 0 0 0 0 0 0 0 0 0 0 0 0 0 0 0 0 0 0 0 0 0 0 0 0 0 0 0 0 0 0 0 0 0 0 0 0 0 0 0 0 0 0 0 0 0 0 0 0 0 0 0 0 0 0 0 0 0 0 0 0 0 0 0 0 0 0 0 0 0 0 0 0 0 0 0 0 0 0 0 0 0 0 0 0 0 0 0 0 0 0 0 0 0 0 0 0 0 0 0 0 0 0 0 0 0 0 0 0 0 0 0 0 0 0 0 0 0 0 0 0 0 0 0 0 0 0 0 0 0 0 0 0 0 0 0 0 0 0 0 0 0 0 0 0 0 0 0 0 0 0 0 0 0 0 0 0 0 0 0 0 0 0 0 0 0 0 0 0 0 0 0 0 0 0 0 0 0 0 0 0 0 0 0 0 0 0 0 0 0 0 0 0 0 0 0 0 0 0 0 0 0 0 0 0 0 0 0 0 0 0 0 0 0 0 0 0 0 0 0 0 0 0 0 0 0 0 0 0 0 0 0 0 0 0 0 0 0 0 0 0 0 0 0 0 0 0 0 0 0 0 0 0 0 0 0 0 0 0 0 0 0 0 0 0 0 0 0 0 0 0 0 0 0 0 0 0 0 0 0 0 0 0 0 0 0 0 0 0 0 0 0 0 0 0 0 0 0 0 0 0 0 0 0 0 0 0 0 0 0 0 0 0 0 0 0 0 0 0 0 0 0 0 0 0 0 0 0 0 0 0 0 0 0 0 0 0 0 0 0 0 0 0 0 0 0 0 0 0 0 0 0 0 0 0 0 0 0 0 0 0 0 0 0 0 0 0 0 0 0 0 0 0 0 0 0 0 0 0 0 0 0 0 0 0 0 0 0 0 0 0 0 0 0 0 0 0 0 0 0 0 0 0 0 0 0 0 0 0 0 0 0 0 0 0 0 0 0 0 0 0 0 0 0 0 0 0 0 0 0 0 0 0 0 0 0 0 0 0 0 0 0 0 0 0 0 0 0 0 0 0 0 0 0 0 0 0 0 0 0 0 0 0 0 0 0 0 0 0 0 0 0 0 0 0 0 0 0 0 0 0 0 0 0 0 0 0 0 0 0 0 0 0 0 0 0 0 0 0 0 0 0 0 0 0 0 0 0 0 0 0 0 0 0 0 0 0 0 0 0 0 0 0 0 0 0 0 0 0 0 0 0 0 0 0 0 0 0 0 0 0 0 0 0 0 0 0 0 0 0 0 0 0 0 0 0 0 0 0 0 0 0 0 0 0 0 0 0 0 0 0 0 0 0 0 0 0 0 0 0 0 0 0 0 0 0 0 0 0 0 0 0 0 0 0 0 0 0 0 0 0 0 0 0 0 0 0 0 0 0 0 0 0 0 0 0 0 0 0 0 0 0 0 0 0 0 0 0 0 0 0 0 0 0 0 0 0 0 0 0 0 0 0 0 0 0 0 0 0 0 0 0 0 0 0 0 0 0 0 0 0 0 0 0 0 0 0 0 0 0 0 0 0 0 0 0 0 0 0 0 0 0 0 0 0 0 0 0 0 0 0 0 0 0 0 0 0 0 0 0 0 0 0 0 0 0 0 0 0 0 0 0 0 0 0 0 0 0 0 0 0 0 0 0 0 0 0 0 0 0 0 0 0 0 0 0 0 0 0 0 0 0 0 0 0 0 0 0 0 0 0 0 0 0 0 0 0 0 0 0 0 0 0 0 0 0 0 0 0 0 0 0 0 0 0 0 0 0 0 0 0 0 0 0 0 0 0 0 0 0 0 0 0 0 0 0 0 0 0 0 0 0 0 0 0 0 0 0 0 0 0 0 0 0 0 0 0 0 0 0 0 0 0 0 0 0 0 0 0 0 0 0 0 0 0 0 0 0 0 0 0 0 0 0 0 0 0 0 0 0 0 0 0 0 0 0 0 0 0 0 0 0 0 0 0 0 0 0 0 0 0 0 0 0 0 0 0 0 0 0 0 0 0 0 0 0 0 0 0 0 0 0 0 0 0 0 0 0 0 0 0 0 0 0 0 0 0 0 0 0 0 0 0 0 0 0 0 0 0 0 0 0 0 0 0 0 0 0 0 0 0 0 0 0 0 0 0 0 0 0 0 0 0 0 0 0 0 0 0 0 0 0 0 0 0 0 0 0 0 0 0 0 0 0 0 0 0 0 0 0 0 0 0 0 0 0 0 0 0 0 0 0 0 0 0 0 0 0 0 0 0 0 0 0 0 0 0 0 0 0 0 0 0 0 0 0 0 0 0 0 0 0 0 0 0 0 0 0 0 0 0 0 0 0 0 0 0 0 0 0 0 0 0 0 0 0 0 0 0 0 0 0 0 0 0 0 0 0 0 0 0 0 0 0 0 0 0 0 0 0 0 0 0 0 0 0 0 0 0 0 0 0 0 0 0 0 0 0 0 0 0 0 0 0 0 0 0 0 0 0 0 0 0 0 0 0 0 0 0 0 0 0 0 0 0 0 0 0 0 0 0 0 0 0 0 0 0 0 0 0 0 0 0 0 0 0 0 0 0 0 0 0 0 0 0 0 0 0 0 0 0 0 0 0 0 0 0 0 0 0 0 0 0 0 0 0 0 0 0 0 0 0 0 0 0 0 0 0 0 0 0 0 0 0 0 0 0 0 0 0 0 0 0 0 0 0 0 0 0 0 0 0 0 0 0 0 0 0 0 0 0 0 0 0 0 0 0 0 0 0 0 0 0 0 0 0 0 0 0 0 0 0 0 0 0 0 0 0 0 0 0 0 0 0 0 0 0 0 0 0 0 0 0 0 0 0 0 0 0 0 0 0 0 0 0 0 0 0 0 0 0 0 0 0 0 0 0 0 0 0 0 0 0 0 0 0 0 0 0 0 0 0 0 0 0 0 0 0 0 0 0 0 0 0 0 0 0 0 0 0 0 0 0 0 0 0 0 0 0 0 0 0 0 0 0 0 0 0 0 0 0 0 0 0 0 0 0 0 0 0 0 0 0 0 0 0 0 0 0 0 0 0 0 0 0 0 0 0 0 0 0 0 0 0 0 0 0 0 0 0 0 0 0 0 0 0 0 0 0 0 0 0 0 0 0 0 0 0 0 0 0 0 0 0 0 0 0 0 0 0 0 0 0 0 0 0 0 0 0 0 0 0 0 0 0 0 0 0 0 0 0 0 0 0 0 0 0 0 0 0 0 0 0 0 0 0 0 0 0 0 0 0 0 0 0 0 0 0 0 0 0 0 0 0 0 0 0 0 0 0 0 0 0 0 0 0 0 0 0 0 0 0 0 0 0 0 0 0 0 0 0 0 0 0 0 0 0 0 0 0 0 0 0 0 0 0 0 0 0 0 0 0 0 0 0 0 0 0 0 0 0 0 0 0 0 0 0 0 0 0 0 0 0 0 0 0 0 0 0 0 0 0 0 0 0 0 0 0 0 0 0 0 0 0 0 0 0 0 0 0 0 0 0 0 0 0 0 0 0 0 0 0 0 0 0 0 0 0 0 0 0 0 0 0 0 0 0 0 0 0 0 0 0 0 0 0 0 0 0 0 0 0 0 0 0 0 0 0 0 0 0 0 0 0 0 0 0 0 0 0 0 0 0 0 0 0 0 0 0 0 0 0 0 0 0 0 0 0 0 0 0 0 0 0 0 0 0 0 0 0 0 0 0 0 0 0 0 0 0 0 0 0 0 0 0 0 0 0 0 0 0 0 0 0 0 0 0 0 0 0 0 0 0 0 0 0 0 0 0 0 0 0 0 0 0 0 0 0 0 0 0 0 0 0 0 0 0 0 0 0 0 0 0 0 0 0 0 0 0 0 0 0 0 0 0 0 0 0 0 0 0 0 0 0 0 0 0 0 0 0 0 0 0 0 0 0 0 0 0 0 0 0 0 0 0 0 0 0 0 0 0 0 0 0 0 0 0 0 0 0 0 0 0 0 0 0 0 0 0 0 0 0 0 0 0 0 0 0 0 0 0 0 0 0 0 0 0 0 0 0 0 0 0 0 0 0 0 0 0 0 0 0 0 0 0 0 0 0 0 0 0 0 0 0 0 0 0 0 0 0 0 0 0 0 0 0 0 0 0 0 0 0 0 0 0 0 0 0 0 0 0 0 0 0 0 0 0 0 0 0 0 0 0 0 0 0 0 0 0 0 0 0 0 0 0 0 0 0 0 0 0 0 0 0 0 0 0 0 0 0 0 0 0 0 0 0 0 0 0 0 0 0 0 0 0 0 0 0 0 0 0 0 0 0 0 0 0 0 0 0 0 0 0 0 0 0 0 0 0 0 0 0 0 0 0 0 0 0 0 0 0 0 0 0 0 0 0 0 0 0 0 0 0 0 0 0 0 0 0 0 0 0 0 0 0 0 0 0 0 0 0 0 0 0 0 0 0 0 0 0 0 0 0 0 0 0 0 0 0 0 0 0 0 0 0 0 0 0 0 0 0 0 0 0 0 0 0 0 0 0 0 0 0 0 0 0 0 0 0 0 0 0 0 0 0 0 0 0 0 0 0 0 0 0 0 0 0 0 0 0 0 0 0 0 0 0 0 0 0 0 0 0 0 0 0 0 0 0 0 0 0 0 0 0 0 0 0 0 0 0 0 0 0 0 0 0 0 0 0 0 0 0 0 0 0 0 0 0 0 0 0 0 0 0 0 0 0 0 0 0 0 0 0 0 0 0 0 0 0 0 0 0 0 0 0 0 0 0 0 0 0 0 0 0 0 0 0 0 0 0 0 0 0 0 0 0 0 0 0 0 0 0 0 0 0 0 0 0 0 0 0 0 0 0 0 0 0 0 0 0 0 0 0 0 0 0 0 0 0 0 0 0 0 0 0 0 0 0 0 0 0 0 0 0 0 0 0 0 0 0 0 0 0 0 0 0 0 0 0 0 0 0 0 0 0 0 0 0 0 0 0 0 0 0 0 0 0 0 0 0 0 0 0 0 0 0 0 0 0 0 0 0 0 0 0 0 0 0 0 0 0 0 0 0 0 0 0 0 0 0 0 0 0 0 0 0 0 0 0 0 0 0 0 0 0 0 0 0 0 0 0 0 0 0 0 0 0 0 0 0 0 0 0 0 0 0 0 0 0 0 0 0 0 0 0 0 0 0 0 0 0 0 0 0 0 0 0 0 0 0 0 0 0 0 0 0 0 0 0 0 0 0 0 0 0 0 0 0 0 0 0 0 0 0 0 0 0 0 0 0 0 0 0 0 0 0 0 0 0 0 0 0 0 0 0 0 0 0 0 0 0 0 0 0 0 0 0 0 0 0 0 0 0 0 0 0 0 0 0 0 0 0 0 0 0 0 0 0 0 0 0 0 0 0 0 0 0 0 0 0 0 0 0 0 0 0 0 0 0 0 0 0 0 0 0 0 0 0 0 0 0 0 0 0 0 0 0 0 0 0 0 0 0 0 0 0 0 0 0 0 0 0 0 0 0 0 0 0 0 0 0 0 0 0 0 0 0 0 0 0 0 0 0 0 0 0 0 0 0 0 0 0 0 0 0 0 0 0 0 0 0 0 0 0 0 0 0 0 0 0 0 0 0 0 0 0 0 0 0 0 0 0 0 0 0 0 0 0 0 0 0 0 0 0 0 0 0 0 0 0 0 0 0 0 0 0 0 0 0 0 0 0 0 0 0 0 0 0 0 0 0 0 0 0 0 0 0 0 0 0 0 0 0 0 0 0 0 0 0 0 0 0 0 0 0 0 0 0 0 0 0 0 0 0 0 0 0 0 0 0 0 0 0 0 0 0 0 0 0 0 0 0 0 0 0 0 0 0 0 0 0 0 0 0 0 0 0 0 0 0 0 0 0 0 0 0 0 0 0 0 0 0 0 0 0 0 0 0 0 0 0 0 0 0 0 0 0 0 0 0 0 0 0 0 0 0 0 0 0 0 0 0 0 0 0 0 0 0 0 0 0 0 0 0 0 0 0 0 0 0 0 0 0 0 0 0 0 0 0 0 0 0 0 0 0 0 0 0 0 0 0 0 0 0 0 0 0 0 0 0 0 0 0 0 0 0 0 0 0 0 0 0 0 0 0 0 0 0 0 0 0 0 0 0 0 0 0 0 0 0 0 0 0 0 0 0 0 0 0 0 0 0 0 0 0 0 0 0 0 0 0 0 0 0 0 0 0 0 0 0 0 0 0 0 0 0 0 0 0 0 0 0 0 0 0 0 0 0 0 0 0 0 0 0 0 0 0 0 0 0 0 0 0 0 0 0 0 0 0 0 0 0 0 0 0 0 0 0 0 0 0 0 0 0 0 0 0 0 0 0 0 0 0 0 0 0 0 0 0 0 0 0 0 0 0 0 0 0 0 0 0 0 0 0 0 0 0 0 0 0 0 0 0 0 0 0 0 0 0 0 0 0 0 0 0 0 0 0 0 0 0 0 0 0 0 0 0 0 0 0 0 0 0 0 0 0 0 0 0 0 0 0 0 0 0 0 0 0 0 0 0 0 0 0 0 0 0 0 0 0 0 0 0 0 0 0 0 0 0 0 0 0 0 0 0 0 0 0 0 0 0 0 0 0 0 0 0 0 0 0 0 0 0 0 0 0 0 0 0 0 0 0 0 0 0 0 0 0 0 0 0 0 0 0 0 0 0 0 0 0 0 0 0 0 0 0 0 0 0 0 0 0 0 0 0 0 0 0 0 0 0 0 0 0 0 0 0 0 0 0 0 0 0 0 0 0 0 0 0 0 0 0 0 0 0 0 0 0 0 0 0 0 0 0 0 0 0 0 0 0 0 0 0 0 0 0 0 0 0 0 0 0 0 0 0 0 0 0 0 0 0 0 0 0 0 0 0 0 0 0 0 0 0 0 0 0 0 0 0 0 0 0 0 0 0 0 0 0 0 0 0 0 0 0 0 0 0 0 0 0 0 0 0 0 0 0 0 0 0 0 0 0 0 0 0 0 0 0 0 0 0 0 0 0 0 0 0 0 0 0 0 0 0 0 0 0 0 0 0 0 0 0 0 0 0 0 0 0 0 0 0 0 0 0 0 0 0 0 0 0 0 0 0 0 0 0 0 0 0 0 0 0 0 0 0 0 0 0 0 0 0 0 0 0 0 0 0 0 0 0 0 0 0 0 0 0 0 0 0 0 0 0 0 0 0 0 0 0 0 0 0 0 0 0 0 0 0 0 0 0 0 0 0 0 0 0 0 0 0 0 0 0 0 0 0 0 0 0 0 0 0 0 0 0 0 0 0 0 0 0 0 0 0 0 0 0 0 0 0 0 0 0 0 0 0 0 0 0 0 0 0 0 0 0 0 0 0 0 0 0 0 0 0 0 0 0 0 0 0 0 0 0 0 0 0 0 0 0 0 0 0 0 0 0 0 0 0 0 0 0 0 0 0 0 0 0 0 0 0 0 0 0 0 0 0 0 0 0 0 0 0 0 0 0 0 0 0 0 0 0 0 0 0 0 0 0 0 0 0 0 0 0 0 0 0 0 0 0 0 0 0 0 0 0 0 0 0 0 0 0 0 0 0 0 0 0 0 0 0 0 0 0 0 0 0 0 0 0 0 0 0 0 0 0 0 0 0 0 0 0 0 0 0 0 0 0 0 0 0 0 0 0 0 0 0 0 0 0 0 0 0 0 0 0 0 0 0 0 0 0 0 0 0 0 0 0 0 0 0 0 0 0 0 0 0 0 0 0 0 0 0 0 0 0 0 0 0 0 0 0 0 0 0 0 0 0 0 0 0 0 0 0 0 0 0 0 0 0 0 0 0 0 0 0 0 0 0 0 0 0 0 0 0 0 0 0 0 0 0 0 0 0 0 0 0 0 0 0 0 0 0 0 0 0 0 0 0 0 0 0 0 0 0 0 0 0 0 0 0 0 0 0 0 0 0 0 0 0 0 0 0 0 0 0 0 0 0 0 0 0 0 0 0 0 0 0 0 0 0 0 0 0 0 0 0 0 0 0 0 0 0 0 0 0 0 0 0 0 0 0 0 0 0 0 0 0 0 0 0 0 0 0 0 0 0 0 0 0 0 0 0 0 0 0 0 0 0 0 0 0 0 0 0 0 0 0 0 0 0 0 0 0 0 0 0 0 0 0 0 0 0 0 0 0 0 0 0 0 0 0 0 0 0 0 0 0 0 0 0 0 0 0 0 0 0 0 0 0 0 0 0 0 0 0 0 0 0 0 0 0 0 0 0 0 0 0 0 0 0 0 0 0 0 0 0 0 0 0 0 0 0 0 0 0 0 0 0 0 0 0 0 0 0 0 0 0 0 0 0 0 0 0 0 0 0 0 0 0 0 0 0 0 0 0 0 0 0 0 0 0 0 0 0 0 0 0 0 0 0 0 0 0 0 0 0 0 0 0 0 0 0 0 0 0 0 0 0 0 0 0 0 0 0 0 0 0 0 0 0 0 0 0 0 0 0 0 0 0 0 0 0 0 0 0 0 0 0 0 0 0 0 0 0 0 0 0 0 0 0 0 0 0 0 0 0 0 0 0 0 0 0 0 0 0 0 0 0 0 0 0 0 0 0 0 0 0 0 0 0 0 0 0 0 0 0 0 0 0 0 0 0 0 0 0 0 0 0 0 0 0 0 0 0 0 0 0 0 0 0 0 0 0 0 0 0 0 0 0 0 0 0 0 0 0 0 0 0 0 0 0 0 0 0 0 0 0 0 0 0 0 0 0 0 0 0 0 0 0 0 0 0 0 0 0 0 0 0 0 0 0 0 0 0 0 0 0 0 0 0 0 0 0 0 0 0 0 0 0 0 0 0 0 0 0 0 0 0 0 0 0 0 0 0 0 0 0 0 0 0 0 0 0 0 0 0 0 0 0 0 0 0 0 0 0 0 0 0 0 0 0 0 0 0 0 0 0 0 0 0 0 0 0 0 0 0 0 0 0 0 0 0 0 0 0 0 0 0 0 0 0 0 0 0 0 0 0 0 0 0 0 0 0 0 0 0 0 0 0 0 0 0 0 0 0 0 0 0 0 0 0 0 0 0 0 0 0 0 0 0 0 0 0 0 0 0 0 0 0 0 0 0 0 0 0 0 0 0 0 0 0 0 0 0 0 0 0 0 0 0 0 0 0 0 0 0 0 0 0 0 0 0 0 0 0 0 0 0 0 0 0 0 0 0 0 0 0 0 0 0 0 0 0 0 0 0 0 0 0 0 0 0 0 0 0 0 0 0 0 0 0 0 0 0 0 0 0 0 0 0 0 0 0 0 0 0 0 0 0 0 0 0 0 0 0 0 0 0 0 0 0 0 0 0 0 0 0 0 0 0 0 0 0 0 0 0 0 0 0 0 0 0 0 0 0 0 0 0 0 0 0 0 0 0 0 0 0 0 0 0 0 0 0 0 0 0 0 0 0 0 0 0 0 0 0 0 0 0 0 0 0 0 0 0 0 0 0 0 0 0 0 0 0 0 0 0 0 0 0 0 0 0 0 0 0 0 0 0 0 0 0 0 0 0 0 0 0 0 0 0 0 0 0 0 0 0 0 0 0 0 0 0 0 0 0 0 0 0 0 0 0 0 0 0 0 0 0 0 0 0 0 0 0 0 0 0 0 0 0 0 0 0 0 0 0 0 0 0 0 0 0 0 0 0 0 0 0 0 0 0 0 0 0 0 0 0 0 0 0 0 0 0 0 0 0 0 0 0 0 0 0 0 0 0 0 0 0 0 0 0 0 0 0 0 0 0 0 0 0 0 0 0 0 0 0 0 0 0 0 0 0 0 0 0 0 0 0 0 0 0 0 0 0 0 0 0 0 0 0 0 0 0 0 0 0 0 0 0 0 0 0 0 0 0 0 0 0 0 0 0 0 0 0 0 0 0 0 0 0 0 0 0 0 0 0 0 0 0 0 0 0 0 0 0 0 0 0 0 0 0 0 0 0 0 0 0 0 0 0 0 0 0 0 0 0 0 0 0 0 0 0 0 0 0 0 0 0 0 0 0 0 0 0 0 0 0 0 0 0 0 0 0 0 0 0 0 0 0 0 0 0 0 0 0 0 0 0 0 0 0 0 0 0 0 0 0 0 0 0 0 0 0 0 0 0 0 0 0 0 0 0 0 0 0 0 0 0 0 0 0 0 0 0 0 0 0 0 0 0 0 0 0 0 0 0 0 0 0 0 0 0 0 0 0 0 0 0 0 0 0 0 0 0 0 0 0 0 0 0 0 0 0 0 0 0 0 0 0 0 0 0 0 0 0 0 0 0 0 0 0 0 0 0 0 0 0 0 0 0 0 0 0 0 0 0 0 0 0 0 0 0 0 0 0 0 0 0 0 0 0 0 0 0 0 0 0 0 0 0 0 0 0 0 0 0 0 0 0 0 0 0 0 0 0 0 0 0 0 0 0 0 0 0 0 0 0 0 0 0 0 0 0 0 0 0 0 0 0 0 0 0 0 0 0 0 0 0 0 0 0 0 0 0 0 0 0 0 0 0 0 0 0 0 0 0 0 0 0 0 0 0 0 0 0 0 0 0 0 0 0 0 0 0 0 0 0 0 0 0 0 0 0 0 0 0 0 0 0 0 0 0 0 0 0 0 0 0 0 0 0 0 0 0 0 0 0 0 0 0 0 0 0 0 0 0 0 0 0 0 0 0 0 0 0 0 0 0 0 0 0 0 0 0 0 0 0 0 0 0 0 0 0 0 0 0 0 0 0 0 0 0 0 0 0 0 0 0 0 0 0 0 0 0 0 0 0 0 0 0 0 0 0 0 0 0 0 0 0 0 0 0 0 0 0 0 0 0 0 0 0 0 0 0 0 0 0 0 0 0 0 0 0 0 0 0 0 0 0 0 0 0 0 0 0 0 0 0 0 0 0 0 0 0 0 0 0 0 0 0 0 0 0 0 0 0 0 0 0 0 0 0 0 0 0 0 0 0 0 0 0 0 0 0 0 0 0 0 0 0 0 0 0 0 0 0 0 0 0 0 0 0 0 0 0 0 0 0 0 0 0 0 0 0 0 0 0 0 0 0 0 0 0 0 0 0 0 0 0 0 0 0 0 0 0 0 0 0 0 0 0 0 0 0 0 0 0 0 0 0 0 0 0 0 0 0 0 0 0 0 0 0 0 0 0 0 0 0 0 0 0 0 0 0 0 0 0 0 0 0 0 0 0 0 0 0 0 0 0 0 0 0 0 0 0 0 0 0 0 0 0 0 0 0 0 0 0 0 0 0 0 0 0 0 0 0 0 0 0 0 0 0 0 0 0 0 0 0 0 0 0 0 0 0 0 0 0 0 0 0 0 0 0 0 0 0 0 0 0 0 0 0 0 0 0 0 0 0 0 0 0 0 0 0 0 0 0 0 0 0 0 0 0 0 0 0 0 0 0 0 0 0 0 0 0 0 0 0 0 0 0 0 0 0 0 0 0 0 0 0 0 0 0 0 0 0 0 0 0 0 0 0 0 0 0 0 0 0 0 0 0 0 0 0 0 0 0 0 0 0 0 0 0 0 0 0 0 0 0 0 0 0 0 0 0 0 0 0 0 0 0 0 0 0 0 0 0 0 0 0 0 0 0 0 0 0 0 0 0 0 0 0 0 0 0 0 0 0 0 0 0 0 0 0 0 0 0 0 0 0 0 0 0 0 0 0 0 0 0 0 0 0 0 0 0 0 0 0 0 0 0 0 0 0 0 0 0 0 0 0 0 0 0 0 0 0 0 0 0 0 0 0 0 0 0 0 0 0 0 0 0 0 0 0 0 0 0 0 0 0 0 0 0 0 0 0 0 0 0 0 0 0 0 0 0 0 0 0 0 0 0 0 0 0 0 0 0 0 0 0 0 0 0 0 0 0 0 0 0 0 0 0 0 0 0 0 0 0 0 0 0 0 0 0 0 0 0 0 0 0 0 0 0 0 0 0 0 0 0 0 0 0 0 0 0 0 0 0 0 0 0 0 0 0 0 0 0 0 0 0 0 0 0 0 0 0 0 0 0 0 0 0 0 0 0 0 0 0 0 0 0 0 0 0 0 0 0 0 0 0 0 0 0 0 0 0 0 0 0 0 0 0 0 0 0 0 0 0 0 0 0 0 0 0 0 0 0 0 0 0 0 0 0 0 0 0 0 0 0 0 0 0 0 0 0 0 0 0 0 0 0 0 0 0 0 0 0 0 0 0 0 0 0 0 0 0 0 0 0 0 0 0 0 0 0 0 0 0 0 0 0 0 0 0 0 0 0 0 0 0 0 0 0 0 0 0 0 0 0 0 0 0 0 0 0 0 0 0 0 0 0 0 0 0 0 0 0 0 0 0 0 0 0 0 0 0 0 0 0 0 0 0 0 0 0 0 0 0 0 0 0 0 0 0 0 0 0 0 0 0 0 0 0 0 0 0 0 0 0 0 0 0 0 0 0 0 0 0 0 0 0 0 0 0 0 0 0 0 0 0 0 0 0 0 0 0 0 0 0 0 0 0 0 0 0 0 0 0 0 0 0 0 0 0 0 0 0 0 0 0 0 0 0 0 0 0 0 0 0 0 0 0 0 0 0 0 0 0 0 0 0 0 0 0 0 0 0 0 0 0 0 0 0 0 0 0 0 0 0 0 0 0 0 0 0 0 0 0 0 0 0 0 0 0 0 0 0 0 0 0 0 0 0 0 0 0 0 0 0 0 0 0 0 0 0 0 0 0 0 0 0 0 0 0 0 0 0 0 0 0 0 0 0 0 0 0 0 0 0 0 0 0 0 0 0 0 0 0 0 0 0 0 0 0 0 0 0 0 0 0 0 0 0 0 0 0 0 0 0 0 0 0 0 0 0 0 0 0 0 0 0 0 0 0 0 0 0 0 0 0 0 0 0 0 0 0 0 0 0 0 0 0 0 0 0 0 0 0 0 0 0 0 0 0 0 0 0 0 0 0 0 0 0 0 0 0 0 0 0 0 0 0 0 0 0 0 0 0 0 0 0 0 0 0 0 0 0 0 0 0 0 0 0 0 0 0 0 0 0 0 0 0 0 0 0 0 0 0 0 0 0 0 0 0 0 0 0 0 0 0 0 0 0 0 0 0 0 0 0 0 0 0 0 0 0 0 0 0 0 0 0 0 0 0 0 0 0 0 0 0 0 0 0 0 0 0 0 0 0 0 0 0 0 0 0 0 0 0 0 0 0 0 0 0 0 0 0 0 0 0 0 0 0 0 0 0 0 0 0 0 0 0 0 0 0 0 0 0 0 0 0 0 0 0 0 0 0 0 0 0 0 0 0 0 0 0 0 0 0 0 0 0 0 0 0 0 0 0 0 0 0 0 0 0 0 0 0 0 0 0 0 0 0 0 0 0 0 0 0 0 0 0 0 0 0 0 0 0 0 0 0 0 0 0 0 0 0 0 0 0 0 0 0 0 0 0 0 0 0 0 0 0 0 0 0 0 0 0 0 0 0 0 0 0 0 0 0 0 0 0 0 0 0 0 0 0 0 0 0 0 0 0 0 0 0 0 0 0 0 0 0 0 0 0 0 0 0 0 0 0 0 0 0 0 0 0 0 0 0 0 0 0 0 0 0 0 0 0 0 0 0 0 0 0 0 0 0 0 0 0 0 0 0 0 0 0 0 0 0 0 0 0 0 0 0 0 0 0 0 0 0 0 0 0 0 0 0 0 0 0 0 0 0 0 0 0 0 0 0 0 0 0 0 0 0 0 0 0 0 0 0 0 0 0 0 0 0 0 0 0 0 0 0 0 0 0 0 0 0 0 0 0 0 0 0 0 0 0 0 0 0 0 0 0 0 0 0 0 0 0 0 0 0 0 0 0 0 0 0 0 0 0 0 0 0 0 0 0 0 0 0 0 0 0 0 0 0 0 0 0 0 0 0 0 0 0 0 0 0 0 0 0 0 0 0 0 0 0 0 0 0 0 0 0 0 0 0 0 0 0 0 0 0 0 0 0 0 0 0 0 0 0 0 0 0 0 0 0 0 0 0 0 0 0 0 0 0 0 0 0 0 0 0 0 0 0 0 0 0 0 0 0 0 0 0 0 0 0 0 0 0 0 0 0 0 0 0 0 0 0 0 0 0 0 0 0 0 0 0 0 0 0 0 0 0 0 0 0 0 0 0 0 0 0 0 0 0 0 0 0 0 0 0 0 0 0 0 0 0 0 0 0 0 0 0 0 0 0 0 0 0 0 0 0 0 0 0 0 0 0 0 0 0 0 0 0 0 0 0 0 0 0 0 0 0 0 0 0 0 0 0 0 0 0 0 0 0 0 0 0 0 0 0 0 0 0 0 0 0 0 0 0 0 0 0 0 0 0 0 0 0 0 0 0 0 0 0 0 0 0 0 0 0 0 0 0 0 0 0 0 0 0 0 0 0 0 0 0 0 0 0 0 0 0 0 0 0 0 0 0 0 0 0 0 0 0 0 0 0 0 0 0 0 0 0 0 0 0 0 0 0 0 0 0 0 0 0 0 0 0 0 0 0 0 0 0 0 0 0 0 0 0 0 0 0 0 0 0 0 0 0 0 0 0 0 0 0 0 0 0 0 0 0 0 0 0 0 0 0 0 0 0 0 0 0 0 0 0 0 0 0 0 0 0 0 0 0 0 0 0 0 0 0 0 0 0 0 0 0 0 0 0 0 0 0 0 0 0 0 0 0 0 0 0 0 0 0 0 0 0 0 0 0 0 0 0 0 0 0 0 0 0 0 0 0 0 0 0 0 0 0 0 0 0 0 0 0 0 0 0 0 0 0 0 0 0 0 0 0 0 0 0 0 0 0 0 0 0 0 0 0 0 0 0 0 0 0 0 0 0 0 0 0 0 0 0 0 0 0 0 0 0 0 0 0 0 0 0 0 0 0 0 0 0 0 0 0 0 0 0 0 0 0 0 0 0 0 0 0 0 0 0 0 0 0 0 0 0 0 0 0 0 0 0 0 0 0 0 0 0 0 0 0 0 0 0 0 0 0 0 0 0 0 0 0 0 0 0 0 0 0 0 0 0 0 0 0 0 0 0 0 0 0 0 0 0 0 0 0 0 0 0 0 0 0 0 0 0 0 0 0 0 0 0 0 0 0 0 0 0 0 0 0 0 0 0 0 0 0 0 0 0 0 0 0 0 0 0 0 0 0 0 0 0 0 0 0 0 0 0 0 0 0 0 0 0 0 0 0 0 0 0 0 0 0 0 0 0 0 0 0 0 0 0 0 0 0 0 0 0 0 0 0 0 0 0 0 0 0 0 0 0 0 0 0 0 0 0 0 0 0 0 0 0 0 0 0 0 0 0 0 0 0 0 0 0 0 0 0 0 0 0 0 0 0 0 0 0 0 0 0 0 0 0 0 0 0 0 0 0 0 0 0 0 0 0 0 0 0 0 0 0 0 0 0 0 0 0 0 0 0 0 0 0 0 0 0 0 0 0 0 0 0 0 0 0 0 0 0 0 0 0 0 0 0 0 0 0 0 0 0 0 0 0 0 0 0 0 0 0 0 0 0 0 0 0 0 0 0 0 0 0 0 0 0 0 0 0 0 0 0 0 0 0 0 0 0 0 0 0 0 0 0 0 0 0 0 0 0 0 0 0 0 0 0 0 0 0 0 0 0 0 0 0 0 0 0 0 0 0 0 0 0 0 0 0 0 0 0 0 0 0 0 0 0 0 0 0 0 0 0 0 0 0 0 0 0 0 0 0 0 0 0 0 0 0 0 0 0 0 0 0 0 0 0 0 0 0 0 0 0 0 0 0 0 0 0 0 0 0 0 0 0 0 0 0 0 0 0 0 0 0 0 0 0 0 0 0 0 0 0 0 0 0 0 0 0 0 0 0 0 0 0 0 0 0 0 0 0 0 0 0 0 0 0 0 0 0 0 0 0 0 0 0 0 0 0 0 0 0 0 0 0 0 0 0 0 0 0 0 0 0 0 0 0 0 0 0 0 0 0 0 0 0 0 0 0 0 0 0 0 0 0 0 0 0 0 0 0 0 0 0 0 0 0 0 0 0 0 0 0 0 0 0 0 0 0 0 0 0 0 0 0 0 0 0 0 0 0 0 0 0 0 0 0 0 0 0 0 0 0 0 0 0 0 0 0 0 0 0 0 0 0 0 0 0 0 0 0 0 0 0 0 0 0 0 0 0 0 0 0 0 0 0 0 0 0 0 0 0 0 0 0 0 0 0 0 0 0 0 0 0 0 0 0 0 0 0 0 0 0 0 0 0 0 0 0 0 0 0 0 0 0 0 0 0 0 0 0 0 0 0 0 0 0 0 0 0 0 0 0 0 0 0 0 0 0 0 0 0 0 0 0 0 0 0 0 0 0 0 0 0 0 0 0 0 0 0 0 0 0 0 0 0 0 0 0 0 0 0 0 0 0 0 0 0 0 0 0 0 0 0 0 0 0 0 0 0 0 0 0 0 0 0 0 0 0 0 0 0 0 0 0 0 0 0 0 0 0 0 0 0 0 0 0 0 0 0 0 0 0 0 0 0 0 0 0 0 0 0 0 0 0 0 0 0 0 0 0 0 0 0 0 0 0 0 0 0 0 0 0 0 0 0 0 0 0 0 0 0 0 0 0 0 0 0 0 0 0 0 0 0 0 0 0 0 0 0 0 0 0 0 0 0 0 0 0 0 0 0 0 0 0 0 0 0 0 0 0 0 0 0 0 0 0 0 0 0 0 0 0 0 0 0 0 0 0 0 0 0 0 0 0 0 0 0 0 0 0 0 0 0 0 0 0 0 0 0 0 0 0 0 0 0 0 0 0 0 0 0 0 0 0 0 0 0 0 0 0 0 0 0 0 0 0 0 0 0 0 0 0 0 0 0 0 0 0 0 0 0 0 0 0 0 0 0 0 0 0 0 0 0 0 0 0 0 0 0 0 0 0 0 0 0 0 0 0 0 0 0 0 0 0 0 0 0 0 0 0 0 0 0 0 0 0 0 0 0 0 0 0 0 0 0 0 0 0 0 0 0 0 0 0 0 0 0 0 0 0 0 0 0 0 0 0 0 0 0 0 0 0 0 0 0 0 0 0 0 0 0 0 0 0 0 0 0 0 0 0 0 0 0 0 0 0 0 0 0 0 0 0 0 0 0 0 0 0 0 0 0 0 0 0 0 0 0 0 0 0 0 0 0 0 0 0 0 0 0 0 0 0 0 0 0 0 0 0 0 0 0 0 0 0 0 0 0 0 0 0 0 0 0 0 0 0 0 0 0 0 0 0 0 0 0 0 0 0 0 0 0 0 0 0 0 0 0 0 0 0 0 0 0 0 0 0 0 0 0 0 0 0 0 0 0 0 0 0 0 0 0 0 0 0 0 0 0 0 0 0 0 0 0 0 0 0 0 0 0 0 0 0 0 0 0 0 0 0 0 0 0 0 0 0 0 0 0 0 0 0 0 0 0 0 0 0 0 0 0 0 0 0 0 0 0 0 0 0 0 0 0 0 0 0 0 0 0 0 0 0 0 0 0 0 0 0 0 0 0 0 0 0 0 0 0 0 0 0 0 0 0 0 0 0 0 0 0 0 0 0 0 0 0 0 0 0 0 0 0 0 0 0 0 0 0 0 0 0 0 0 0 0 0 0 0 0 0 0 0 0 0 0 0 0 0 0 0 0 0 0 0 0 0 0 0 0 0 0 0 0 0 0 0 0 0 0 0 0 0 0 0 0 0 0 0 0 0 0 0 0 0 0 0 0 0 0 0 0 0 0 0 0 0 0 0 0 0 0 0 0 0 0 0 0 0 0 0 0 0 0 0 0 0 0 0 0 0 0 0 0 0 0 0 0 0 0 0 0 0 0 0 0 0 0 0 0 0 0 0 0 0 0 0 0 0 0 0 0 0 0 0 0 0 0 0 0 0 0 0 0 0 0 0 0 0 0 0 0 0 0 0 0 0 0 0 0 0 0 0 0 0 0 0 0 0 0 0 0 0 0 0 0 0 0 0 0 0 0 0 0 0 0 0 0 0 0 0 0 0 0 0 0 0 0 0 0 0
</DataArray>
<DataArray Name="GAMMADOT" NumberOfComponents="3" type="Float32" format="ascii" >
 0 0 0 0 0 0 0 0 0 0 0 0 0 0 0 0 0 0 0 0 0 0 0 0 0 0 0 0 0 0 0 0 0 0 0 0 0 0 0 0 0 0 0 0 0 0 0 0 0 0 0 0 0 0 0 0 0 0 0 0 0 0 0 0 0 0 0 0 0 0 0 0 0 0 0 0 0 0 0 0 0 0 0 0 0 0 0 0 0 0 0 0 0 0 0 0 0 0 0 0 0 0 0 0 0 0 0 0 0 0 0 0 0 0 0 0 0 0 0 0 0 0 0 0 0 0 0 0 0 0 0 0 0 0 0 0 0 0 0 0 0 0 0 0 0 0 0 0 0 0 0 0 0 0 0 0 0 0 0 0 0 0 0 0 0 0 0 0 0 0 0 0 0 0 0 0 0 0 0 0 0 0 0 0 0 0 0 0 0 0 0 0 0 0 0 0 0 0 0 0 0 0 0 0 0 0 0 0 0 0 0 0 0 0 0 0 0 0 0 0 0 0 0 0 0 0 0 0 0 0 0 0 0 0 0 0 0 0 0 0 0 0 0 0 0 0 0 0 0 0 0 0 0 0 0 0 0 0 0 0 0 0 0 0 0 0 0 0 0 0 0 0 0 0 0 0 0 0 0 0 0 0 0 0 0 0 0 0 0 0 0 0 0 0 0 0 0 0 0 0 0 0 0 0 0 0 0 0 0 0 0 0 0 0 0 0 0 0 0 0 0 0 0 0 0 0 0 0 0 0 0 0 0 0 0 0 0 0 0 0 0 0 0 0 0 0 0 0 0 0 0 0 0 0 0 0 0 0 0 0 0 0 0 0 0 0 0 0 0 0 0 0 0 0 0 0 0 0 0 0 0 0 0 0 0 0 0 0 0 0 0 0 0 0 0 0 0 0 0 0 0 0 0 0 0 0 0 0 0 0 0 0 0 0 0 0 0 0 0 0 0 0 0 0 0 0 0 0 0 0 0 0 0 0 0 0 0 0 0 0 0 0 0 0 0 0 0 0 0 0 0 0 0 0 0 0 0 0 0 0 0 0 0 0 0 0 0 0 0 0 0 0 0 0 0 0 0 0 0 0 0 0 0 0 0 0 0 0 0 0 0 0 0 0 0 0 0 0 0 0 0 0 0 0 0 0 0 0 0 0 0 0 0 0 0 0 0 0 0 0 0 0 0 0 0 0 0 0 0 0 0 0 0 0 0 0 0 0 0 0 0 0 0 0 0 0 0 0 0 0 0 0 0 0 0 0 0 0 0 0 0 0 0 0 0 0 0 0 0 0 0 0 0 0 0 0 0 0 0 0 0 0 0 0 0 0 0 0 0 0 0 0 0 0 0 0 0 0 0 0 0 0 0 0 0 0 0 0 0 0 0 0 0 0 0 0 0 0 0 0 0 0 0 0 0 0 0 0 0 0 0 0 0 0 0 0 0 0 0 0 0 0 0 0 0 0 0 0 0 0 0 0 0 0 0 0 0 0 0 0 0 0 0 0 0 0 0 0 0 0 0 0 0 0 0 0 0 0 0 0 0 0 0 0 0 0 0 0 0 0 0 0 0 0 0 0 0 0 0 0 0 0 0 0 0 0 0 0 0 0 0 0 0 0 0 0 0 0 0 0 0 0 0 0 0 0 0 0 0 0 0 0 0 0 0 0 0 0 0 0 0 0 0 0 0 0 0 0 0 0 0 0 0 0 0 0 0 0 0 0 0 0 0 0 0 0 0 0 0 0 0 0 0 0 0 0 0 0 0 0 0 0 0 0 0 0 0 0 0 0 0 0 0 0 0 0 0 0 0 0 0 0 0 0 0 0 0 0 0 0 0 0 0 0 0 0 0 0 0 0 0 0 0 0 0 0 0 0 0 0 0 0 0 0 0 0 0 0 0 0 0 0 0 0 0 0 0 0 0 0 0 0 0 0 0 0 0 0 0 0 0 0 0 0 0 0 0 0 0 0 0 0 0 0 0 0 0 0 0 0 0 0 0 0 0 0 0 0 0 0 0 0 0 0 0 0 0 0 0 0 0 0 0 0 0 0 0 0 0 0 0 0 0 0 0 0 0 0 0 0 0 0 0 0 0 0 0 0 0 0 0 0 0 0 0 0 0 0 0 0 0 0 0 0 0 0 0 0 0 0 0 0 0 0 0 0 0 0 0 0 0 0 0 0 0 0 0 0 0 0 0 0 0 0 0 0 0 0 0 0 0 0 0 0 0 0 0 0 0 0 0 0 0 0 0 0 0 0 0 0 0 0 0 0 0 0 0 0 0 0 0 0 0 0 0 0 0 0 0 0 0 0 0 0 0 0 0 0 0 0 0 0 0 0 0 0 0 0 0 0 0 0 0 0 0 0 0 0 0 0 0 0 0 0 0 0 0 0 0 0 0 0 0 0 0 0 0 0 0 0 0 0 0 0 0 0 0 0 0 0 0 0 0 0 0 0 0 0 0 0 0 0 0 0 0 0 0 0 0 0 0 0 0 0 0 0 0 0 0 0 0 0 0 0 0 0 0 0 0 0 0 0 0 0 0 0 0 0 0 0 0 0 0 0 0 0 0 0 0 0 0 0 0 0 0 0 0 0 0 0 0 0 0 0 0 0 0 0 0 0 0 0 0 0 0 0 0 0 0 0 0 0 0 0 0 0 0 0 0 0 0 0 0 0 0 0 0 0 0 0 0 0 0 0 0 0 0 0 0 0 0 0 0 0 0 0 0 0 0 0 0 0 0 0 0 0 0 0 0 0 0 0 0 0 0 0 0 0 0 0 0 0 0 0 0 0 0 0 0 0 0 0 0 0 0 0 0 0 0 0 0 0 0 0 0 0 0 0 0 0 0 0 0 0 0 0 0 0 0 0 0 0 0 0 0 0 0 0 0 0 0 0 0 0 0 0 0 0 0 0 0 0 0 0 0 0 0 0 0 0 0 0 0 0 0 0 0 0 0 0 0 0 0 0 0 0 0 0 0 0 0 0 0 0 0 0 0 0 0 0 0 0 0 0 0 0 0 0 0 0 0 0 0 0 0 0 0 0 0 0 0 0 0 0 0 0 0 0 0 0 0 0 0 0 0 0 0 0 0 0 0 0 0 0 0 0 0 0 0 0 0 0 0 0 0 0 0 0 0 0 0 0 0 0 0 0 0 0 0 0 0 0 0 0 0 0 0 0 0 0 0 0 0 0 0 0 0 0 0 0 0 0 0 0 0 0 0 0 0 0 0 0 0 0 0 0 0 0 0 0 0 0 0 0 0 0 0 0 0 0 0 0 0 0 0 0 0 0 0 0 0 0 0 0 0 0 0 0 0 0 0 0 0 0 0 0 0 0 0 0 0 0 0 0 0 0 0 0 0 0 0 0 0 0 0 0 0 0 0 0 0 0 0 0 0 0 0 0 0 0 0 0 0 0 0 0 0 0 0 0 0 0 0 0 0 0 0 0 0 0 0 0 0 0 0 0 0 0 0 0 0 0 0 0 0 0 0 0 0 0 0 0 0 0 0 0 0 0 0 0 0 0 0 0 0 0 0 0 0 0 0 0 0 0 0 0 0 0 0 0 0 0 0 0 0 0 0 0 0 0 0 0 0 0 0 0 0 0 0 0 0 0 0 0 0 0 0 0 0 0 0 0 0 0 0 0 0 0 0 0 0 0 0 0 0 0 0 0 0 0 0 0 0 0 0 0 0 0 0 0 0 0 0 0 0 0 0 0 0 0 0 0 0 0 0 0 0 0 0 0 0 0 0 0 0 0 0 0 0 0 0 0 0 0 0 0 0 0 0 0 0 0 0 0 0 0 0 0 0 0 0 0 0 0 0 0 0 0 0 0 0 0 0 0 0 0 0 0 0 0 0 0 0 0 0 0 0 0 0 0 0 0 0 0 0 0 0 0 0 0 0 0 0 0 0 0 0 0 0 0 0 0 0 0 0 0 0 0 0 0 0 0 0 0 0 0 0 0 0 0 0 0 0 0 0 0 0 0 0 0 0 0 0 0 0 0 0 0 0 0 0 0 0 0 0 0 0 0 0 0 0 0 0 0 0 0 0 0 0 0 0 0 0 0 0 0 0 0 0 0 0 0 0 0 0 0 0 0 0 0 0 0 0 0 0 0 0 0 0 0 0 0 0 0 0 0 0 0 0 0 0 0 0 0 0 0 0 0 0 0 0 0 0 0 0 0 0 0 0 0 0 0 0 0 0 0 0 0 0 0 0 0 0 0 0 0 0 0 0 0 0 0 0 0 0 0 0 0 0 0 0 0 0 0 0 0 0 0 0 0 0 0 0 0 0 0 0 0 0 0 0 0 0 0 0 0 0 0 0 0 0 0 0 0 0 0 0 0 0 0 0 0 0 0 0 0 0 0 0 0 0 0 0 0 0 0 0 0 0 0 0 0 0 0 0 0 0 0 0 0 0 0 0 0 0 0 0 0 0 0 0 0 0 0 0 0 0 0 0 0 0 0 0 0 0 0 0 0 0 0 0 0 0 0 0 0 0 0 0 0 0 0 0 0 0 0 0 0 0 0 0 0 0 0 0 0 0 0 0 0 0 0 0 0 0 0 0 0 0 0 0 0 0 0 0 0 0 0 0 0 0 0 0 0 0 0 0 0 0 0 0 0 0 0 0 0 0 0 0 0 0 0 0 0 0 0 0 0 0 0 0 0 0 0 0 0 0 0 0 0 0 0 0 0 0 0 0 0 0 0 0 0 0 0 0 0 0 0 0 0 0 0 0 0 0 0 0 0 0 0 0 0 0 0 0 0 0 0 0 0 0 0 0 0 0 0 0 0 0 0 0 0 0 0 0 0 0 0 0 0 0 0 0 0 0 0 0 0 0 0 0 0 0 0 0 0 0 0 0 0 0 0 0 0 0 0 0 0 0 0 0 0 0 0 0 0 0 0 0 0 0 0 0 0 0 0 0 0 0 0 0 0 0 0 0 0 0 0 0 0 0 0 0 0 0 0 0 0 0 0 0 0 0 0 0 0 0 0 0 0 0 0 0 0 0 0 0 0 0 0 0 0 0 0 0 0 0 0 0 0 0 0 0 0 0 0 0 0 0 0 0 0 0 0 0 0 0 0 0 0 0 0 0 0 0 0 0 0 0 0 0 0 0 0 0 0 0 0 0 0 0 0 0 0 0 0 0 0 0 0 0 0 0 0 0 0 0 0 0 0 0 0 0 0 0 0 0 0 0 0 0 0 0 0 0 0 0 0 0 0 0 0 0 0 0 0 0 0 0 0 0 0 0 0 0 0 0 0 0 0 0 0 0 0 0 0 0 0 0 0 0 0 0 0 0 0 0 0 0 0 0 0 0 0 0 0 0 0 0 0 0 0 0 0 0 0 0 0 0 0 0 0 0 0 0 0 0 0 0 0 0 0 0 0 0 0 0 0 0 0 0 0 0 0 0 0 0 0 0 0 0 0 0 0 0 0 0 0 0 0 0 0 0 0 0 0 0 0 0 0 0 0 0 0 0 0 0 0 0 0 0 0 0 0 0 0 0 0 0 0 0 0 0 0 0 0 0 0 0 0 0 0 0 0 0 0 0 0 0 0 0 0 0 0 0 0 0 0 0 0 0 0 0 0 0 0 0 0 0 0 0 0 0 0 0 0 0 0 0 0 0 0 0 0 0 0 0 0 0 0 0 0 0 0 0 0 0 0 0 0 0 0 0 0 0 0 0 0 0 0 0 0 0 0 0 0 0 0 0 0 0 0 0 0 0 0 0 0 0 0 0 0 0 0 0 0 0 0 0 0 0 0 0 0 0 0 0 0 0 0 0 0 0 0 0 0 0 0 0 0 0 0 0 0 0 0 0 0 0 0 0 0 0 0 0 0 0 0 0 0 0 0 0 0 0 0 0 0 0 0 0 0 0 0 0 0 0 0 0 0 0 0 0 0 0 0 0 0 0 0 0 0 0 0 0 0 0 0 0 0 0 0 0 0 0 0 0 0 0 0 0 0 0 0 0 0 0 0 0 0 0 0 0 0 0 0 0 0 0 0 0 0 0 0 0 0 0 0 0 0 0 0 0 0 0 0 0 0 0 0 0 0 0 0 0 0 0 0 0 0 0 0 0 0 0 0 0 0 0 0 0 0 0 0 0 0 0 0 0 0 0 0 0 0 0 0 0 0 0 0 0 0 0 0 0 0 0 0 0 0 0 0 0 0 0 0 0 0 0 0 0 0 0 0 0 0 0 0 0 0 0 0 0 0 0 0 0 0 0 0 0 0 0 0 0 0 0 0 0 0 0 0 0 0 0 0 0 0 0 0 0 0 0 0 0 0 0 0 0 0 0 0 0 0 0 0 0 0 0 0 0 0 0 0 0 0 0 0 0 0 0 0 0 0 0 0 0 0 0 0 0 0 0 0 0 0 0 0 0 0 0 0 0 0 0 0 0 0 0 0 0 0 0 0 0 0 0 0 0 0 0 0 0 0 0 0 0 0 0 0 0 0 0 0 0 0 0 0 0 0 0 0 0 0 0 0 0 0 0 0 0 0 0 0 0 0 0 0 0 0 0 0 0 0 0 0 0 0 0 0 0 0 0 0 0 0 0 0 0 0 0 0 0 0 0 0 0 0 0 0 0 0 0 0 0 0 0 0 0 0 0 0 0 0 0 0 0 0 0 0 0 0 0 0 0 0 0 0 0 0 0 0 0 0 0 0 0 0 0 0 0 0 0 0 0 0 0 0 0 0 0 0 0 0 0 0 0 0 0 0 0 0 0 0 0 0 0 0 0 0 0 0 0 0 0 0 0 0 0 0 0 0 0 0 0 0 0 0 0 0 0 0 0 0 0 0 0 0 0 0 0 0 0 0 0 0 0 0 0 0 0 0 0 0 0 0 0 0 0 0 0 0 0 0 0 0 0 0 0 0 0 0 0 0 0 0 0 0 0 0 0 0 0 0 0 0 0 0 0 0 0 0 0 0 0 0 0 0 0 0 0 0 0 0 0 0 0 0 0 0 0 0 0 0 0 0 0 0 0 0 0 0 0 0 0 0 0 0 0 0 0 0 0 0 0 0 0 0 0 0 0 0 0 0 0 0 0 0 0 0 0 0 0 0 0 0 0 0 0 0 0 0 0 0 0 0 0 0 0 0 0 0 0 0 0 0 0 0 0 0 0 0 0 0 0 0 0 0 0 0 0 0 0 0 0 0 0 0 0 0 0 0 0 0 0 0 0 0 0 0 0 0 0 0 0 0 0 0 0 0 0 0 0 0 0 0 0 0 0 0 0 0 0 0 0 0 0 0 0 0 0 0 0 0 0 0 0 0 0 0 0 0 0 0 0 0 0 0 0 0 0 0 0 0 0 0 0 0 0 0 0 0 0 0 0 0 0 0 0 0 0 0 0 0 0 0 0 0 0 0 0 0 0 0 0 0 0 0 0 0 0 0 0 0 0 0 0 0 0 0 0 0 0 0 0 0 0 0 0 0 0 0 0 0 0 0 0 0 0 0 0 0 0 0 0 0 0 0 0 0 0 0 0 0 0 0 0 0 0 0 0 0 0 0 0 0 0 0 0 0 0 0 0 0 0 0 0 0 0 0 0 0 0 0 0 0 0 0 0 0 0 0 0 0 0 0 0 0 0 0 0 0 0 0 0 0 0 0 0 0 0 0 0 0 0 0 0 0 0 0 0 0 0 0 0 0 0 0 0 0 0 0 0 0 0 0 0 0 0 0 0 0 0 0 0 0 0 0 0 0 0 0 0 0 0 0 0 0 0 0 0 0 0 0 0 0 0 0 0 0 0 0 0 0 0 0 0 0 0 0 0 0 0 0 0 0 0 0 0 0 0 0 0 0 0 0 0 0 0 0 0 0 0 0 0 0 0 0 0 0 0 0 0 0 0 0 0 0 0 0 0 0 0 0 0 0 0 0 0 0 0 0 0 0 0 0 0 0 0 0 0 0 0 0 0 0 0 0 0 0 0 0 0 0 0 0 0 0 0 0 0 0 0 0 0 0 0 0 0 0 0 0 0 0 0 0 0 0 0 0 0 0 0 0 0 0 0 0 0 0 0 0 0 0 0 0 0 0 0 0 0 0 0 0 0 0 0 0 0 0 0 0 0 0 0 0 0 0 0 0 0 0 0 0 0 0 0 0 0 0 0 0 0 0 0 0 0 0 0 0 0 0 0 0 0 0 0 0 0 0 0 0 0 0 0 0 0 0 0 0 0 0 0 0 0 0 0 0 0 0 0 0 0 0 0 0 0 0 0 0 0 0 0 0 0 0 0 0 0 0 0 0 0 0 0 0 0 0 0 0 0 0 0 0 0 0 0 0 0 0 0 0 0 0 0 0 0 0 0 0 0 0 0 0 0 0 0 0 0 0 0 0 0 0 0 0 0 0 0 0 0 0 0 0 0 0 0 0 0 0 0 0 0 0 0 0 0 0 0 0 0 0 0 0 0 0 0 0 0 0 0 0 0 0 0 0 0 0 0 0 0 0 0 0 0 0 0 0 0 0 0 0 0 0 0 0 0 0 0 0 0 0 0 0 0 0 0 0 0 0 0 0 0 0 0 0 0 0 0 0 0 0 0 0 0 0 0 0 0 0 0 0 0 0 0 0 0 0 0 0 0 0 0 0 0 0 0 0 0 0 0 0 0 0 0 0 0 0 0 0 0 0 0 0 0 0 0 0 0 0 0 0 0 0 0 0 0 0 0 0 0 0 0 0 0 0 0 0 0 0 0 0 0 0 0 0 0 0 0 0 0 0 0 0 0 0 0 0 0 0 0 0 0 0 0 0 0 0 0 0 0 0 0 0 0 0 0 0 0 0 0 0 0 0 0 0 0 0 0 0 0 0 0 0 0 0 0 0 0 0 0 0 0 0 0 0 0 0 0 0 0 0 0 0 0 0 0 0 0 0 0 0 0 0 0 0 0 0 0 0 0 0 0 0 0 0 0 0 0 0 0 0 0 0 0 0 0 0 0 0 0 0 0 0 0 0 0 0 0 0 0 0 0 0 0 0 0 0 0 0 0 0 0 0 0 0 0 0 0 0 0 0 0 0 0 0 0 0 0 0 0 0 0 0 0 0 0 0 0 0 0 0 0 0 0 0 0 0 0 0 0 0 0 0 0 0 0 0 0 0 0 0 0 0 0 0 0 0 0 0 0 0 0 0 0 0 0 0 0 0 0 0 0 0 0 0 0 0 0 0 0 0 0 0 0 0 0 0 0 0 0 0 0 0 0 0 0 0 0 0 0 0 0 0 0 0 0 0 0 0 0 0 0 0 0 0 0 0 0 0 0 0 0 0 0 0 0 0 0 0 0 0 0 0 0 0 0 0 0 0 0 0 0 0 0 0 0 0 0 0 0 0 0 0 0 0 0 0 0 0 0 0 0 0 0 0 0 0 0 0 0 0 0 0 0 0 0 0 0 0 0 0 0 0 0 0 0 0 0 0 0 0 0 0 0 0 0 0 0 0 0 0 0 0 0 0 0 0 0 0 0 0 0 0 0 0 0 0 0 0 0 0 0 0 0 0 0 0 0 0 0 0 0 0 0 0 0 0 0 0 0 0 0 0 0 0 0 0 0 0 0 0 0 0 0 0 0 0 0 0 0 0 0 0 0 0 0 0 0 0 0 0 0 0 0 0 0 0 0 0 0 0 0 0 0 0 0 0 0 0 0 0 0 0 0 0 0 0 0 0 0 0 0 0 0 0 0 0 0 0 0 0 0 0 0 0 0 0 0 0 0 0 0 0 0 0 0 0 0 0 0 0 0 0 0 0 0 0 0 0 0 0 0 0 0 0 0 0 0 0 0 0 0 0 0 0 0 0 0 0 0 0 0 0 0 0 0 0 0 0 0 0 0 0 0 0 0 0 0 0 0 0 0 0 0 0 0 0 0 0 0 0 0 0 0 0 0 0 0 0 0 0 0 0 0 0 0 0 0 0 0 0 0 0 0 0 0 0 0 0 0 0 0 0 0 0 0 0 0 0 0 0 0 0 0 0 0 0 0 0 0 0 0 0 0 0 0 0 0 0 0 0 0 0 0 0 0 0 0 0 0 0 0 0 0 0 0 0 0 0 0 0 0 0 0 0 0 0 0 0 0 0 0 0 0 0 0 0 0 0 0 0 0 0 0 0 0 0 0 0 0 0 0 0 0 0 0 0 0 0 0 0 0 0 0 0 0 0 0 0 0 0 0 0 0 0 0 0 0 0 0 0 0 0 0 0 0 0 0 0 0 0 0 0 0 0 0 0 0 0 0 0 0 0 0 0 0 0 0 0 0 0 0 0 0 0 0 0 0 0 0 0 0 0 0 0 0 0 0 0 0 0 0 0 0 0 0 0 0 0 0 0 0 0 0 0 0 0 0 0 0 0 0 0 0 0 0 0 0 0 0 0 0 0 0 0 0 0 0 0 0 0 0 0 0 0 0 0 0 0 0 0 0 0 0 0 0 0 0 0 0 0 0 0 0 0 0 0 0 0 0 0 0 0 0 0 0 0 0 0 0 0 0 0 0 0 0 0 0 0 0 0 0 0 0 0 0 0 0 0 0 0 0 0 0 0 0 0 0 0 0 0 0 0 0 0 0 0 0 0 0 0 0 0 0 0 0 0 0 0 0 0 0 0 0 0 0 0 0 0 0 0 0 0 0 0 0 0 0 0 0 0 0 0 0 0 0 0 0 0 0 0 0 0 0 0 0 0 0 0 0 0 0 0 0 0 0 0 0 0 0 0 0 0 0 0 0 0 0 0 0 0 0 0 0 0 0 0 0 0 0 0 0 0 0 0 0 0 0 0 0 0 0 0 0 0 0 0 0 0 0 0 0 0 0 0 0 0 0 0 0 0 0 0 0 0 0 0 0 0 0 0 0 0 0 0 0 0 0 0 0 0 0 0 0 0 0 0 0 0 0 0 0 0 0 0 0 0 0 0 0 0 0 0 0 0 0 0 0 0 0 0 0 0 0 0 0 0 0 0 0 0 0 0 0 0 0 0 0 0 0 0 0 0 0 0 0 0 0 0 0 0 0 0 0 0 0 0 0 0 0 0 0 0 0 0 0 0 0 0 0 0 0 0 0 0 0 0 0 0 0 0 0 0 0 0 0 0 0 0 0 0 0 0 0 0 0 0 0 0 0 0 0 0 0 0 0 0 0 0 0 0 0 0 0 0 0 0 0 0 0 0 0 0 0 0 0 0 0 0 0 0 0 0 0 0 0 0 0 0 0 0 0 0 0 0 0 0 0 0 0 0 0 0 0 0 0 0 0 0 0 0 0 0 0 0 0 0 0 0 0 0 0 0 0 0 0 0 0 0 0 0 0 0 0 0 0 0 0 0 0 0 0 0 0 0 0 0 0 0 0 0 0 0 0 0 0 0 0 0 0 0 0 0 0 0 0 0 0 0 0 0 0 0 0 0 0 0 0 0 0 0 0 0 0 0 0 0 0 0 0 0 0 0 0 0 0 0 0 0 0 0 0 0 0 0 0 0 0 0 0 0 0 0 0 0 0 0 0 0 0 0 0 0 0 0 0 0 0 0 0 0 0 0 0 0 0 0 0 0 0 0 0 0 0 0 0 0 0 0 0 0 0 0 0 0 0 0 0 0 0 0 0 0 0 0 0 0 0 0 0 0 0 0 0 0 0 0 0 0 0 0 0 0 0 0 0 0 0 0 0 0 0 0 0 0 0 0 0 0 0 0 0 0 0 0 0 0 0 0 0 0 0 0 0 0 0 0 0 0 0 0 0 0 0 0 0 0 0 0 0 0 0 0 0 0 0 0 0 0 0 0 0 0 0 0 0 0 0 0 0 0 0 0 0 0 0 0 0 0 0 0 0 0 0 0 0 0 0 0 0 0 0 0 0 0 0 0 0 0 0 0 0 0 0 0 0 0 0 0 0 0 0 0 0 0 0 0 0 0 0 0 0 0 0 0 0 0 0 0 0 0 0 0 0 0 0 0 0 0 0 0 0 0 0 0 0 0 0 0 0 0 0 0 0 0 0 0 0 0 0 0 0 0 0 0 0 0 0 0 0 0 0 0 0 0 0 0 0 0 0 0 0 0 0 0 0 0 0 0 0 0 0 0 0 0 0 0 0 0 0 0 0 0 0 0 0 0 0 0 0 0 0 0 0 0 0 0 0 0 0 0 0 0 0 0 0 0 0 0 0 0 0 0 0 0 0 0 0 0 0 0 0 0 0 0 0 0 0 0 0 0 0 0 0 0 0 0 0 0 0 0 0 0 0 0 0 0 0 0 0 0 0 0 0 0 0 0 0 0 0 0 0 0 0 0 0 0 0 0 0 0 0 0 0 0 0 0 0 0 0 0 0 0 0 0 0 0 0 0 0 0 0 0 0 0 0 0 0 0 0 0 0 0 0 0 0 0 0 0 0 0 0 0 0 0 0 0 0 0 0 0 0 0 0 0 0 0 0 0 0 0 0 0 0 0 0 0 0 0 0 0 0 0 0 0 0 0 0 0 0 0 0 0 0 0 0 0 0 0 0 0 0 0 0 0 0 0 0 0 0 0 0 0 0 0 0 0 0 0 0 0 0 0 0 0 0 0 0 0 0 0 0 0 0 0 0 0 0 0 0 0 0 0 0 0 0 0 0 0 0 0 0 0 0 0 0 0 0 0 0 0 0 0 0 0 0 0 0 0 0 0 0 0 0 0 0 0 0 0 0 0 0 0 0 0 0 0 0 0 0 0 0 0 0 0 0 0 0 0 0 0 0 0 0 0 0 0 0 0 0 0 0 0 0 0 0 0 0 0 0 0 0 0 0 0 0 0 0 0 0 0 0 0 0 0 0 0 0 0 0 0 0 0 0 0 0 0 0 0 0 0 0 0 0 0 0 0 0 0 0 0 0 0 0 0 0 0 0 0 0 0 0 0 0 0 0 0 0 0 0 0 0 0 0 0 0 0 0 0 0 0 0 0 0 0 0 0 0 0 0 0 0 0 0 0 0 0 0 0 0 0 0 0 0 0 0 0 0 0 0 0 0 0 0 0 0 0 0 0 0 0 0 0 0 0 0 0 0 0 0 0 0 0 0 0 0 0 0 0 0 0 0 0 0 0 0 0 0 0 0 0 0 0 0 0 0 0 0 0 0 0 0 0 0 0 0 0 0 0 0 0 0 0 0 0 0 0 0 0 0 0 0 0 0 0 0 0 0 0 0 0 0 0 0 0 0 0 0 0 0 0 0 0 0 0 0 0 0 0 0 0 0 0 0 0 0 0 0 0 0 0 0 0 0 0 0 0 0 0 0 0 0 0 0 0 0 0 0 0 0 0 0 0 0 0 0 0 0 0 0 0 0 0 0 0 0 0 0 0 0 0 0 0 0 0 0 0 0 0 0 0 0 0 0 0 0 0 0 0 0 0 0 0 0 0 0 0 0 0 0 0 0 0 0 0 0 0 0 0 0 0 0 0 0 0 0 0 0 0 0 0 0 0 0 0 0 0 0 0 0 0 0 0 0 0 0 0 0 0 0 0 0 0 0 0 0 0 0 0 0 0 0 0 0 0 0 0 0 0 0 0 0 0 0 0 0 0 0 0 0 0 0 0 0 0 0 0 0 0 0 0 0 0 0 0 0 0 0 0 0 0 0 0 0 0 0 0 0 0 0 0 0 0 0 0 0 0 0 0 0 0 0 0 0 0 0 0 0 0 0 0 0 0 0 0 0 0 0 0 0 0 0 0 0 0 0 0 0 0 0 0 0 0 0 0 0 0 0 0 0 0 0 0 0 0 0 0 0 0 0 0 0 0 0 0 0 0 0 0 0 0 0 0 0 0 0 0 0 0 0 0 0 0 0 0 0 0 0 0 0 0 0 0 0 0 0 0 0 0 0 0 0 0 0 0 0 0 0 0 0 0 0 0 0 0 0 0 0 0 0 0 0 0 0 0 0 0 0 0 0 0 0 0 0 0 0 0 0 0 0 0 0 0 0 0 0 0 0 0 0 0 0 0 0 0 0 0 0 0 0 0 0 0 0 0 0 0 0 0 0 0 0 0 0 0 0 0 0 0 0 0 0 0 0 0 0 0 0 0 0 0 0 0 0 0 0 0 0 0 0 0 0 0 0 0 0 0 0 0 0 0 0 0 0 0 0 0 0 0 0 0 0 0 0 0 0 0 0 0 0 0 0 0 0 0 0 0 0 0 0 0 0 0 0 0 0 0 0 0 0 0 0 0 0 0 0 0 0 0 0 0 0 0 0 0 0 0 0 0 0 0 0 0 0 0 0 0 0 0 0 0 0 0 0 0 0 0 0 0 0 0 0 0 0 0 0 0 0 0 0 0 0 0 0 0 0 0 0 0 0 0 0 0 0 0 0 0 0 0 0 0 0 0 0 0 0 0 0 0 0 0 0 0 0 0 0 0 0 0 0 0 0 0 0 0 0 0 0 0 0 0 0 0 0 0 0 0 0 0 0 0 0 0 0 0 0 0 0 0 0 0 0 0 0 0 0 0 0 0 0 0 0 0 0 0 0 0 0 0 0 0 0 0 0 0 0 0 0 0 0 0 0 0 0 0 0 0 0 0 0 0 0 0 0 0 0 0 0 0 0 0 0 0 0 0 0 0 0 0 0 0 0 0 0 0 0 0 0 0 0 0 0 0 0 0 0 0 0 0 0 0 0 0 0 0 0 0 0 0 0 0 0 0 0 0 0 0 0 0 0 0 0 0 0 0 0 0 0 0 0 0 0 0 0 0 0 0 0 0 0 0 0 0 0 0 0 0 0 0 0 0 0 0 0 0 0 0 0 0 0 0 0 0 0 0 0 0 0 0 0 0 0 0 0 0 0 0 0 0 0 0 0 0 0 0 0 0 0 0 0 0 0 0 0 0 0 0 0 0 0 0 0 0 0 0 0 0 0 0 0 0 0 0 0 0 0 0 0 0 0 0 0 0 0 0 0 0 0 0 0 0 0 0 0 0 0 0 0 0 0 0 0 0 0 0 0 0 0 0 0 0 0 0 0 0 0 0 0 0 0 0 0 0 0 0 0 0 0 0 0 0 0 0 0 0 0 0 0 0 0 0 0 0 0 0 0 0 0 0 0 0 0 0 0 0 0 0 0 0 0 0 0 0 0 0 0 0 0 0 0 0 0 0 0 0 0 0 0 0 0 0 0 0 0 0 0 0 0 0 0 0 0 0 0 0 0 0 0 0 0 0 0 0 0 0 0 0 0 0 0 0 0 0 0 0 0 0 0 0 0 0 0 0 0 0 0 0 0 0 0 0 0 0 0 0 0 0 0 0 0 0 0 0 0 0 0 0 0 0 0 0 0 0 0 0 0 0 0 0 0 0 0 0 0 0 0 0 0 0 0 0 0 0 0 0 0 0 0 0 0 0 0 0 0 0 0 0 0 0 0 0 0 0 0 0 0 0 0 0 0 0 0 0 0 0 0 0 0 0 0 0 0 0 0 0 0 0 0 0 0 0 0 0 0 0 0 0 0 0 0 0 0 0 0 0 0 0 0 0 0 0 0 0 0 0 0 0 0 0 0 0 0 0 0 0 0 0 0 0 0 0 0 0 0 0 0 0 0 0 0 0 0 0 0 0 0 0 0 0 0 0 0 0 0 0 0 0 0 0 0 0 0 0 0 0 0 0 0 0 0 0 0 0 0 0 0 0 0 0 0 0 0 0 0 0 0 0 0 0 0 0 0 0 0 0 0 0 0 0 0 0 0 0 0 0 0 0 0 0 0 0 0 0 0 0 0 0 0 0 0 0 0 0 0 0 0 0 0 0 0 0 0 0 0 0 0 0 0 0 0 0 0 0 0 0 0 0 0 0 0 0 0 0 0 0 0 0 0 0 0 0 0 0 0 0 0 0 0 0 0 0 0 0 0 0 0 0 0 0 0 0 0 0 0 0 0 0 0 0 0 0 0 0 0 0 0 0 0 0 0 0 0 0 0 0 0 0 0 0 0 0 0 0 0 0 0 0 0 0 0 0 0 0 0 0 0 0 0 0 0 0 0 0 0 0 0 0 0 0 0 0 0 0 0 0 0 0 0 0 0 0 0 0 0 0 0 0 0 0 0 0 0 0 0 0 0 0 0 0 0 0 0 0 0 0 0 0 0 0 0 0 0 0 0 0 0 0 0 0 0 0 0 0 0 0 0 0 0 0 0 0 0 0 0 0 0 0 0 0 0 0 0 0 0 0 0 0 0 0 0 0 0 0 0 0 0 0 0 0 0 0 0 0 0 0 0 0 0 0 0 0 0 0 0 0 0 0 0 0 0 0 0 0 0 0 0 0 0 0 0 0 0 0 0 0 0 0 0 0 0 0 0 0 0 0 0 0 0 0 0 0 0 0 0 0 0 0 0 0 0 0 0 0 0 0 0 0 0 0 0 0 0 0 0 0 0 0 0 0 0 0 0 0 0 0 0 0 0 0 0 0 0 0 0 0 0 0 0 0 0 0 0 0 0 0 0 0 0 0 0 0 0 0 0 0 0 0 0 0 0 0 0 0 0 0 0 0 0 0 0 0 0 0 0 0 0 0 0 0 0 0 0 0 0 0 0 0 0 0 0 0 0 0 0 0 0 0 0 0 0 0 0 0 0 0 0 0 0 0 0 0 0 0 0 0 0 0 0 0 0 0 0 0 0 0 0 0 0 0 0 0 0 0 0 0 0 0 0 0 0 0 0 0 0 0 0 0 0 0 0 0 0 0 0 0 0 0 0 0 0 0 0 0 0 0 0 0 0 0 0 0 0 0 0 0 0 0 0 0 0 0 0 0 0 0 0 0 0 0 0 0 0 0 0 0 0 0 0 0 0 0 0 0 0 0 0 0 0 0 0 0 0 0 0 0 0 0 0 0 0 0 0 0 0 0 0 0 0 0 0 0 0 0 0 0 0 0 0 0 0 0 0 0 0 0 0 0 0 0 0 0 0 0 0 0 0 0 0 0 0 0 0 0 0 0 0 0 0 0 0 0 0 0 0 0 0 0 0 0 0 0 0 0 0 0 0 0 0 0 0 0 0 0 0 0 0 0 0 0 0 0 0 0 0 0 0 0 0 0 0 0 0 0 0 0 0 0 0 0 0 0 0 0 0 0 0 0 0 0 0 0 0 0 0 0 0 0 0 0 0 0 0 0 0 0 0 0 0 0 0 0 0 0 0 0 0 0 0 0 0 0 0 0 0 0 0 0 0 0 0 0 0 0 0 0 0 0 0 0 0 0 0 0 0 0 0 0 0 0 0 0 0 0 0 0 0 0 0 0 0 0 0 0 0 0 0 0 0 0 0 0 0 0 0 0 0 0 0 0 0 0 0 0 0 0 0 0 0 0 0 0 0 0 0 0 0 0 0 0 0 0 0 0 0 0 0 0 0 0 0 0 0 0 0 0 0 0 0 0 0 0 0 0 0 0 0 0 0 0 0 0 0 0 0 0 0 0 0 0 0 0 0 0 0 0 0 0 0 0 0 0 0 0 0 0 0 0 0 0 0 0 0 0 0 0 0 0 0 0 0 0 0 0 0 0 0 0 0 0 0 0 0 0 0 0 0 0 0 0 0 0 0 0 0 0 0 0 0 0 0 0 0 0 0 0 0 0 0 0 0 0 0 0 0 0 0 0 0 0 0 0 0 0 0 0 0 0 0 0 0 0 0 0 0 0 0 0 0 0 0 0 0 0 0 0 0 0 0 0 0 0 0 0 0 0 0 0 0 0 0 0 0 0 0 0 0 0 0 0 0 0 0 0 0 0 0 0 0 0 0 0 0 0 0 0 0 0 0 0 0 0 0 0 0 0 0 0 0 0 0 0 0 0 0 0 0 0 0 0 0 0 0 0 0 0 0 0 0 0 0 0 0 0 0 0 0 0 0 0 0 0 0 0 0 0 0 0 0 0 0 0 0 0 0 0 0 0 0 0 0 0 0 0 0 0 0 0 0 0 0 0 0 0 0 0 0 0 0 0 0 0 0 0 0 0 0 0 0 0 0 0 0 0 0 0 0 0 0 0 0 0 0 0 0 0 0 0 0 0 0 0 0 0 0 0 0 0 0 0 0 0 0 0 0 0 0 0 0 0 0 0 0 0 0 0 0 0 0 0 0 0 0 0 0 0 0 0 0 0 0 0 0 0 0 0 0 0 0 0 0 0 0 0 0 0 0 0 0 0 0 0 0 0 0 0 0 0 0 0 0 0 0 0 0 0 0 0 0 0 0 0 0 0 0 0 0 0 0 0 0 0 0 0 0 0 0 0 0 0 0 0 0 0 0 0 0 0 0 0 0 0 0 0 0 0 0 0 0 0 0 0 0 0 0 0 0 0 0 0 0 0 0 0 0 0 0 0 0 0 0 0 0 0 0 0 0 0 0 0 0 0 0 0 0 0 0 0 0 0 0 0 0 0 0 0 0 0 0 0 0 0 0 0 0 0 0 0 0 0 0 0 0 0 0 0 0 0 0 0 0 0 0 0 0 0 0 0 0 0 0 0 0 0 0 0 0 0 0 0 0 0 0 0 0 0 0 0 0 0 0 0 0 0 0 0 0 0 0 0 0 0 0 0 0 0 0 0 0 0 0 0 0 0 0 0 0 0 0 0 0 0 0 0 0 0 0 0 0 0 0 0 0 0 0 0 0 0 0 0 0 0 0 0 0 0 0 0 0 0 0 0 0 0 0 0 0 0 0 0 0 0 0 0 0 0 0 0 0 0 0 0 0 0 0 0 0 0 0 0 0 0 0 0 0 0 0 0 0 0 0 0 0 0 0 0 0 0 0 0 0 0 0 0 0 0 0 0 0 0 0 0 0 0 0 0 0 0 0 0 0 0 0 0 0 0 0 0 0 0 0 0 0 0 0 0 0 0 0 0 0 0 0 0 0 0 0 0 0 0 0 0 0 0 0 0 0 0 0 0 0 0 0 0 0 0 0 0 0 0 0 0 0 0 0 0 0 0 0 0 0 0 0 0 0 0 0 0 0 0 0 0 0 0 0 0 0 0 0 0 0 0 0 0 0 0 0 0 0 0 0 0 0 0 0 0 0 0 0 0 0 0 0 0 0 0 0 0 0 0 0 0 0 0 0 0 0 0 0 0 0 0 0 0 0 0 0 0 0 0 0 0 0 0 0 0 0 0 0 0 0 0 0 0 0 0 0 0 0 0 0 0 0 0 0 0 0 0 0 0 0 0 0 0 0 0 0 0 0 0 0 0 0 0 0 0 0 0 0 0 0 0 0 0 0 0 0 0 0 0 0 0 0 0 0 0 0 0 0 0 0 0 0 0 0 0 0 0 0 0 0 0 0 0 0 0 0 0 0 0 0 0 0 0 0 0 0 0 0 0 0 0 0 0 0 0 0 0 0 0 0 0 0 0 0 0 0 0 0 0 0 0 0 0 0 0 0 0 0 0 0 0 0 0 0 0 0 0 0 0 0 0 0 0 0 0 0 0 0 0 0 0 0 0 0 0 0 0 0 0 0 0 0 0 0 0 0 0 0 0 0 0 0 0 0 0 0 0 0 0 0 0 0 0 0 0 0 0 0 0 0 0 0 0 0 0 0 0 0 0 0 0 0 0 0 0 0 0 0 0 0 0 0 0 0 0 0 0 0 0 0 0 0 0 0 0 0 0 0 0 0 0 0 0 0 0 0 0 0 0 0 0 0 0 0 0 0 0 0 0 0 0 0 0 0 0 0 0 0 0 0 0 0 0 0 0 0 0 0 0 0 0 0 0 0 0 0 0 0 0 0 0 0 0 0 0 0 0 0 0 0 0 0 0 0 0 0 0 0 0 0 0 0 0 0 0 0 0 0 0 0 0 0 0 0 0 0 0 0 0 0 0 0 0 0 0 0 0 0 0 0 0 0 0 0 0 0 0 0 0 0 0 0 0 0 0 0 0 0 0 0 0 0 0 0 0 0 0 0 0 0 0 0 0 0 0 0 0 0 0 0 0 0 0 0 0 0 0 0 0 0 0 0 0 0 0 0 0 0 0 0 0 0 0 0 0 0 0 0 0 0 0 0 0 0 0 0 0 0 0 0 0 0 0 0 0 0 0 0 0 0 0 0 0 0 0 0 0 0 0 0 0 0 0 0 0 0 0 0 0 0 0 0 0 0 0 0 0 0 0 0 0 0 0 0 0 0 0 0 0 0 0 0 0 0 0 0 0 0 0 0 0 0 0 0 0 0 0 0 0 0 0 0 0 0 0 0 0 0 0 0 0 0 0 0 0 0 0 0 0 0 0 0 0 0 0 0 0 0 0 0 0 0 0 0 0 0 0 0 0 0 0 0 0 0 0 0 0 0 0 0 0 0 0 0 0 0 0 0 0 0 0 0 0 0 0 0 0 0 0 0 0 0 0 0 0 0 0 0 0 0 0 0 0 0 0 0 0 0 0 0 0 0 0 0 0 0 0 0 0 0 0 0 0 0 0 0 0 0 0 0 0 0 0 0 0 0 0 0 0 0 0 0 0 0 0 0 0 0 0 0 0 0 0 0 0 0 0 0 0 0 0 0 0 0 0 0 0 0 0 0 0 0 0 0 0 0 0 0 0 0 0 0 0 0 0 0 0 0 0 0 0 0 0 0 0 0 0 0 0 0 0 0 0 0 0 0 0 0 0 0 0 0 0 0 0 0 0 0 0 0 0 0 0 0 0 0 0 0 0 0 0 0 0 0 0 0 0 0 0 0 0 0 0 0 0 0 0 0 0 0 0 0 0 0 0 0 0 0 0 0 0 0 0 0 0 0 0 0 0 0 0 0 0 0 0 0 0 0 0 0 0 0 0 0 0 0 0 0 0 0 0 0 0 0 0 0 0 0 0 0 0 0 0 0 0 0 0 0 0 0 0 0 0 0 0 0 0 0 0 0 0 0 0 0 0 0 0 0 0 0 0 0 0 0 0 0 0 0 0 0 0 0 0 0 0 0 0 0 0 0 0 0 0 0 0 0 0 0 0 0 0 0 0 0 0 0 0 0 0 0 0 0 0 0 0 0 0 0 0 0 0 0 0 0 0 0 0 0 0 0 0 0 0 0 0 0 0 0 0 0 0 0 0 0 0 0 0 0 0 0 0 0 0 0 0 0 0 0 0 0 0 0 0 0 0 0 0 0 0 0 0 0 0 0 0 0 0 0 0 0 0 0 0 0 0 0 0 0 0 0 0 0 0 0 0 0 0 0 0 0 0 0 0 0 0 0 0 0 0 0 0 0 0 0 0 0 0 0 0 0 0 0 0 0 0 0 0 0 0 0 0 0 0 0 0 0 0 0 0 0 0 0 0 0 0 0 0 0 0 0 0 0 0 0 0 0 0 0 0 0 0 0 0 0 0 0 0 0 0 0 0 0 0 0 0 0 0 0 0 0 0 0 0 0 0 0 0 0 0 0 0 0 0 0 0 0 0 0 0 0 0 0 0 0 0 0 0 0 0 0 0 0 0 0 0 0 0 0 0 0 0 0 0 0 0 0 0 0 0 0 0 0 0 0 0 0 0 0 0 0 0 0 0 0 0 0 0 0 0 0 0 0 0 0 0 0 0 0 0 0 0 0 0 0 0 0 0 0 0 0 0 0 0 0 0 0 0 0 0 0 0 0 0 0 0 0 0 0 0 0 0 0 0 0 0 0 0 0 0 0 0 0 0 0 0 0 0 0 0 0 0 0 0 0 0 0 0 0 0 0 0 0 0 0 0 0 0 0 0 0 0 0 0 0 0 0 0 0 0 0 0 0 0 0 0 0 0 0 0 0 0 0 0 0 0 0 0 0 0 0 0 0 0 0 0 0 0 0 0 0 0 0 0 0 0 0 0 0 0 0 0 0 0 0 0 0 0 0 0 0 0 0 0 0 0 0 0 0 0 0 0 0 0 0 0 0 0 0 0 0 0 0 0 0 0 0 0 0 0 0 0 0 0 0 0 0 0 0 0 0 0 0 0 0 0 0 0 0 0 0 0 0 0 0 0 0 0 0 0 0 0 0 0 0 0 0 0 0 0 0 0 0 0 0 0 0 0 0 0 0 0 0 0 0 0 0 0 0 0 0 0 0 0 0 0 0 0 0 0 0 0 0 0 0 0 0 0 0 0 0 0 0 0 0 0 0 0 0 0 0 0 0 0 0 0 0 0 0 0 0 0 0 0 0 0 0 0 0 0 0 0 0 0 0 0 0 0 0 0 0 0 0 0 0 0 0 0 0 0 0 0 0 0 0 0 0 0 0 0 0 0 0 0 0 0 0 0 0 0 0 0 0 0 0 0 0 0 0 0 0 0 0 0 0 0 0 0 0 0 0 0 0 0 0 0 0 0 0 0 0 0 0 0 0 0 0 0 0 0 0 0 0 0 0 0 0 0 0 0 0 0 0 0 0 0 0 0 0 0 0 0 0 0 0 0 0 0 0 0 0 0 0 0 0 0 0 0 0 0 0 0 0 0 0 0 0 0 0 0 0 0 0 0 0 0 0 0 0 0 0 0 0 0 0 0 0 0 0 0 0 0 0 0 0 0 0 0 0 0 0 0 0 0 0 0 0 0 0 0 0 0 0 0 0 0 0 0 0 0 0 0 0 0 0 0 0 0 0 0 0 0 0 0 0 0 0 0 0 0 0 0 0 0 0 0 0 0 0 0 0 0 0 0 0 0 0 0 0 0 0 0 0 0 0 0 0 0 0 0 0 0 0 0 0 0 0 0 0 0 0 0 0 0 0 0 0 0 0 0 0 0 0 0 0 0 0 0 0 0 0 0 0 0 0 0 0 0 0 0 0 0 0 0 0 0 0 0 0 0 0 0 0 0 0 0 0 0 0 0 0 0 0 0 0 0 0 0 0 0 0 0 0 0 0 0 0 0 0 0 0 0 0 0 0 0 0 0 0 0 0 0 0 0 0 0 0 0 0 0 0 0 0 0 0 0 0 0 0 0 0 0 0 0 0 0 0 0 0 0 0 0 0 0 0 0 0 0 0 0 0 0 0 0 0 0 0 0 0 0 0 0 0 0 0 0 0 0 0 0 0 0 0 0 0 0 0 0 0 0 0 0 0 0 0 0 0 0 0 0 0 0 0 0 0 0 0 0 0 0 0 0 0 0 0 0 0 0 0 0 0 0 0 0 0 0 0 0 0 0 0 0 0 0 0 0 0 0 0 0 0 0 0 0 0 0 0 0 0 0 0 0 0 0 0 0 0 0 0 0 0 0 0 0 0 0 0 0 0 0 0 0 0 0 0 0 0 0 0 0 0 0 0 0 0 0 0 0 0 0 0 0 0 0 0 0 0 0 0 0 0 0 0 0 0 0 0 0 0 0 0 0 0 0 0 0 0 0 0 0 0 0 0 0 0 0 0 0 0 0 0 0 0 0 0 0 0 0 0 0 0 0 0 0 0 0 0 0 0 0 0 0 0 0 0 0 0 0 0 0 0 0 0 0 0 0 0 0 0 0 0 0 0 0 0 0 0 0 0 0 0 0 0 0 0 0 0 0 0 0 0 0 0 0 0 0 0 0 0 0 0 0 0 0 0 0 0 0 0 0 0 0 0 0 0 0 0 0 0 0 0 0 0 0 0 0 0 0 0 0 0 0 0 0 0 0 0 0 0 0 0 0 0 0 0 0 0 0 0 0 0 0 0 0 0 0 0 0 0 0 0 0 0 0 0 0 0 0 0 0 0 0 0 0 0 0 0 0 0 0 0 0 0 0 0 0 0 0 0 0 0 0 0 0 0 0 0 0 0 0 0 0 0 0 0 0 0 0 0 0 0 0 0 0 0 0 0 0 0 0 0 0 0 0 0 0 0 0 0 0 0 0 0 0 0 0 0 0 0 0 0 0 0 0 0 0 0 0 0 0 0 0 0 0 0 0 0 0 0 0 0 0 0 0 0 0 0 0 0 0 0 0 0 0 0 0 0 0 0 0 0 0 0 0 0 0 0 0 0 0 0 0 0 0 0 0 0 0 0 0 0 0 0 0 0 0 0 0 0 0 0 0 0 0 0 0 0 0 0 0 0 0 0 0 0 0 0 0 0 0 0 0 0 0 0 0 0 0 0 0 0 0 0 0 0 0 0 0 0 0 0 0 0 0 0 0 0 0 0 0 0 0 0 0 0 0 0 0 0 0 0 0 0 0 0 0 0 0 0 0 0 0 0 0 0 0 0 0 0 0 0 0 0 0 0 0 0 0 0 0 0 0 0 0 0 0 0 0 0 0 0 0 0 0 0 0 0 0 0 0 0 0 0 0 0 0 0 0 0 0 0 0 0 0 0 0 0 0 0 0 0 0 0 0 0 0 0 0 0 0 0 0 0 0 0 0 0 0 0 0 0 0 0 0 0 0 0 0 0 0 0 0 0 0 0 0 0 0 0 0 0 0 0 0 0 0 0 0 0 0 0 0 0 0 0 0 0 0 0 0 0 0 0 0 0 0 0 0 0 0 0 0 0 0 0 0 0 0 0 0 0 0 0 0 0 0 0 0 0 0 0 0 0 0 0 0 0 0 0 0 0 0 0 0 0 0 0 0 0 0 0 0 0 0 0 0 0 0 0 0 0 0 0 0 0 0 0 0 0 0 0 0 0 0 0 0 0 0 0 0 0 0 0 0 0 0 0 0 0 0 0 0 0 0 0 0 0 0 0 0 0 0 0 0 0 0 0 0 0 0 0 0 0 0 0 0 0 0 0 0 0 0 0 0 0 0 0 0 0 0 0 0 0 0 0 0 0 0 0 0 0 0 0 0 0 0 0 0 0 0 0 0 0 0 0 0 0 0 0 0 0 0 0 0 0 0 0 0 0 0 0 0 0 0 0 0 0 0 0 0 0 0 0 0 0 0 0 0 0 0 0 0 0 0 0 0 0 0 0 0 0 0 0 0 0 0 0 0 0 0 0 0 0 0 0 0 0 0 0 0 0 0 0 0 0 0 0 0 0 0 0 0 0 0 0 0 0 0 0 0 0 0 0 0 0 0 0 0 0 0 0 0 0 0 0 0 0 0 0 0 0 0 0 0 0 0 0 0 0 0 0 0 0 0 0 0 0 0 0 0 0 0 0 0 0 0 0 0 0 0 0 0 0 0 0 0 0 0 0 0 0 0 0 0 0 0 0 0 0 0 0 0 0 0 0 0 0 0 0 0 0 0 0 0 0 0 0 0 0 0 0 0 0 0 0 0 0 0 0 0 0 0 0 0 0 0 0 0 0 0 0 0 0 0 0 0 0 0 0 0 0 0 0 0 0 0 0 0 0 0 0 0 0 0 0 0 0 0 0 0 0 0 0 0 0 0 0 0 0 0 0 0 0 0 0 0 0 0 0 0 0 0 0 0 0 0 0 0 0 0 0 0 0 0 0 0 0 0 0 0 0 0 0 0 0 0 0 0 0 0 0 0 0 0 0 0 0 0 0 0 0 0 0 0 0 0 0 0 0 0 0 0 0 0 0 0 0 0 0 0 0 0 0 0 0 0 0 0 0 0 0 0 0 0 0 0 0 0 0 0 0 0 0 0 0 0 0 0 0 0 0 0 0 0 0 0 0 0 0 0 0 0 0 0 0 0 0 0 0 0 0 0 0 0 0 0 0 0 0 0 0 0 0 0 0 0 0 0 0 0 0 0 0 0 0 0 0 0 0 0 0 0 0 0 0 0 0 0 0 0 0 0 0 0 0 0 0 0 0 0 0 0 0 0 0 0 0 0 0 0 0 0 0 0 0 0 0 0 0 0 0 0 0 0 0 0 0 0 0 0 0 0 0 0 0 0 0 0 0 0 0 0 0 0 0 0 0 0 0 0 0 0 0 0 0 0 0 0 0 0 0 0 0 0 0 0 0 0 0 0 0 0 0 0 0 0 0 0 0 0 0 0 0 0 0 0 0 0 0 0 0 0 0 0 0 0 0 0 0 0 0 0 0 0 0 0 0 0 0 0 0 0 0 0 0 0 0 0 0 0 0 0 0 0 0 0 0 0 0 0 0 0 0 0 0 0 0 0 0 0 0 0 0 0 0 0 0 0 0 0 0 0 0 0 0 0 0 0 0 0 0 0 0 0 0 0 0 0 0 0 0 0 0 0 0 0 0 0 0 0 0 0 0 0 0 0 0 0 0 0 0 0 0 0 0 0 0 0 0 0 0 0 0 0 0 0 0 0 0 0 0 0 0 0 0 0 0 0 0 0 0 0 0 0 0 0 0 0 0 0 0 0 0 0 0 0 0 0 0 0 0 0 0 0 0 0 0 0 0 0 0 0 0 0 0 0 0 0 0 0 0 0 0 0 0 0 0 0 0 0 0 0 0 0 0 0 0 0 0 0 0 0 0 0 0 0 0 0 0 0 0 0 0 0 0 0 0 0 0 0 0 0 0 0 0 0 0 0 0 0 0 0 0 0 0 0 0 0 0 0 0 0 0 0 0 0 0 0 0 0 0 0 0 0 0 0 0 0 0 0 0 0 0 0 0 0 0 0 0 0 0 0 0 0 0 0 0 0 0 0 0 0 0 0 0 0 0 0 0 0 0 0 0 0 0 0 0 0 0 0 0 0 0 0 0 0 0 0 0 0 0 0 0 0 0 0 0 0 0 0 0 0 0 0 0 0 0 0 0 0 0 0 0 0 0 0 0 0 0 0 0 0 0 0 0 0 0 0 0 0 0 0 0 0 0 0 0 0 0 0 0 0 0 0 0 0 0 0 0 0 0 0 0 0 0 0 0 0 0 0 0 0 0 0 0 0 0 0 0 0 0 0 0 0 0 0 0 0 0 0 0 0 0 0 0 0 0 0 0 0 0 0 0 0 0 0 0 0 0 0 0 0 0 0 0 0 0 0 0 0 0 0 0 0 0 0 0 0 0 0 0 0 0 0 0 0 0 0 0 0 0 0 0 0 0 0 0 0 0 0 0 0 0 0 0 0 0 0 0 0 0 0 0 0 0 0 0 0 0 0 0 0 0 0 0 0 0 0 0 0 0 0 0 0 0 0 0 0 0 0 0 0 0 0 0 0 0 0 0 0 0 0 0 0 0 0 0 0 0 0 0 0 0 0 0 0 0 0 0 0 0 0 0 0 0 0 0 0 0 0 0 0 0 0 0 0 0 0 0 0 0 0 0 0 0 0 0 0 0 0 0 0 0 0 0 0 0 0 0 0 0 0 0 0 0 0 0 0 0 0 0 0 0 0 0 0 0 0 0 0 0 0 0 0 0 0 0 0 0 0 0 0 0 0 0 0 0 0 0 0 0 0 0 0 0 0 0 0 0 0 0 0 0 0 0 0 0 0 0 0 0 0 0 0 0 0 0 0 0 0 0 0 0 0 0 0 0 0 0 0 0 0 0 0 0 0 0 0 0 0 0 0 0 0 0 0 0 0 0 0 0 0 0 0 0 0 0 0 0 0 0 0 0 0 0 0 0 0 0 0 0 0 0 0 0 0 0 0 0 0 0 0 0 0 0 0 0 0 0 0 0 0 0 0 0 0 0 0 0 0 0 0 0 0 0 0 0 0 0 0 0 0 0 0 0 0 0 0 0 0 0 0 0 0 0 0 0 0 0 0 0 0 0 0 0 0 0 0 0 0 0 0 0 0 0 0 0 0 0 0 0 0 0 0 0 0 0 0 0 0 0 0 0 0 0 0 0 0 0 0 0 0 0 0 0 0 0 0 0 0 0 0 0 0 0 0 0 0 0 0 0 0 0 0 0 0 0 0 0 0 0 0 0 0 0 0 0 0 0 0 0 0 0 0 0 0 0 0 0 0 0 0 0 0 0 0 0 0 0 0 0 0 0 0 0 0 0 0 0 0 0 0 0 0 0 0 0 0 0 0 0 0 0 0 0 0 0 0 0 0 0 0 0 0 0 0 0 0 0 0 0 0 0 0 0 0 0 0 0 0 0 0 0 0 0 0 0 0 0 0 0 0 0 0 0 0 0 0 0 0 0 0 0 0 0 0 0 0 0 0 0 0 0 0 0 0 0 0 0 0 0 0 0 0 0 0 0 0 0 0 0 0 0 0 0 0 0 0 0 0 0 0 0 0 0 0 0 0 0 0 0 0 0 0 0 0 0 0 0 0 0 0 0 0 0 0 0 0 0 0 0 0 0 0 0 0 0 0 0 0 0 0 0 0 0 0 0 0 0 0 0 0 0 0 0 0 0 0 0 0 0 0 0 0 0 0 0 0 0 0 0 0 0 0 0 0 0 0 0 0 0 0 0 0 0 0 0 0 0 0 0 0 0 0 0 0 0 0 0 0 0 0 0 0 0 0 0 0 0 0 0 0 0 0 0 0 0 0 0 0 0 0 0 0 0 0 0 0 0 0 0 0 0 0 0 0 0 0 0 0 0 0 0 0 0 0 0 0 0 0 0 0 0 0 0 0 0 0 0 0 0 0 0 0 0 0 0 0 0 0 0 0 0 0 0 0 0 0 0 0 0 0 0 0 0 0 0 0 0 0 0 0 0 0 0 0 0 0 0 0 0 0 0 0 0 0 0 0 0 0 0 0 0 0 0 0 0 0 0 0 0 0 0 0 0 0 0 0 0 0 0 0 0 0 0 0 0 0 0 0 0 0 0 0 0 0 0 0 0 0 0 0 0 0 0 0 0 0 0 0 0 0 0 0 0 0 0 0 0 0 0 0 0 0 0 0 0 0 0 0 0 0 0 0 0 0 0 0 0 0 0 0 0 0 0 0 0 0 0 0 0 0 0 0 0 0 0 0 0 0 0 0 0 0 0 0 0 0 0 0 0 0 0 0 0 0 0 0 0 0 0 0 0 0 0 0 0 0 0 0 0 0 0 0 0 0 0 0 0 0 0 0 0 0 0 0 0 0 0 0 0 0 0 0 0 0 0 0 0 0 0 0 0 0 0 0 0 0 0 0 0 0 0 0 0 0 0 0 0 0 0 0 0 0 0 0 0 0 0 0 0 0 0 0 0 0 0 0 0 0 0 0 0 0 0 0 0 0 0 0 0 0 0 0 0 0 0 0 0 0 0 0 0 0 0 0 0 0 0 0 0 0 0 0 0 0 0 0 0 0 0 0 0 0 0 0 0 0 0 0 0 0 0 0 0 0 0 0 0 0 0 0 0 0 0 0 0 0 0 0 0 0 0 0 0 0 0 0 0 0 0 0 0 0 0 0 0 0 0 0 0 0 0 0 0 0 0 0 0 0 0 0 0 0 0 0 0 0 0 0 0 0 0 0 0 0 0 0 0 0 0 0 0 0 0 0 0 0 0 0 0 0 0 0 0 0 0 0 0 0 0 0 0 0 0 0 0 0 0 0 0 0 0 0 0 0 0 0 0 0 0 0 0 0 0 0 0 0 0 0 0 0 0 0 0 0 0 0 0 0 0 0 0 0 0 0 0 0 0 0 0 0 0 0 0 0 0 0 0 0 0 0 0 0 0 0 0 0 0 0 0 0 0 0 0 0 0 0 0 0 0 0 0 0 0 0 0 0 0 0 0 0 0 0 0 0 0 0 0 0 0 0 0 0 0 0 0 0 0 0 0 0 0 0 0 0 0 0 0 0 0 0 0 0 0 0 0 0 0 0 0 0 0 0 0 0 0 0 0 0 0 0 0 0 0 0 0 0 0 0 0 0 0 0 0 0 0 0 0 0 0 0 0 0 0 0 0 0 0 0 0 0 0 0 0 0 0 0 0 0 0 0 0 0 0 0 0 0 0 0 0 0 0 0 0 0 0 0 0 0 0 0 0 0 0 0 0 0 0 0 0 0 0 0 0 0 0 0 0 0 0 0 0 0 0 0 0 0 0 0 0 0 0 0 0 0 0 0 0 0 0 0 0 0 0 0 0 0 0 0 0 0 0 0 0 0 0 0 0 0 0 0 0 0 0 0 0 0 0 0 0 0 0 0 0 0 0 0 0 0 0 0 0 0 0 0 0 0 0 0 0 0 0 0 0 0 0 0 0 0 0 0 0 0 0 0 0 0 0 0 0 0 0 0 0 0 0 0 0 0 0 0 0 0 0 0 0 0 0 0 0 0 0 0 0 0 0 0 0 0 0 0 0 0 0 0 0 0 0 0 0 0 0 0 0 0 0 0 0 0 0 0 0 0 0 0 0 0 0 0 0 0 0 0 0 0 0 0 0 0 0 0 0 0 0 0 0 0 0 0 0 0 0 0 0 0 0 0 0 0 0 0 0 0 0 0 0 0 0 0 0 0 0 0 0 0 0 0 0 0 0 0 0 0 0 0 0 0 0 0 0 0 0 0 0 0 0 0 0 0 0 0 0 0 0 0 0 0 0 0 0 0 0 0 0 0 0 0 0 0 0 0 0 0 0 0 0 0 0 0 0 0 0 0 0 0 0 0 0 0 0 0 0 0 0 0 0 0 0 0 0 0 0 0 0 0 0 0 0 0 0 0 0 0 0 0 0 0 0 0 0 0 0 0 0 0 0 0 0 0 0 0 0 0 0 0 0 0 0 0 0 0 0 0 0 0 0 0 0 0 0 0 0 0 0 0 0 0 0 0 0 0 0 0 0 0 0 0 0 0 0 0 0 0 0 0 0 0 0 0 0 0 0 0 0 0 0 0 0 0 0 0 0 0 0 0 0 0 0 0 0 0 0 0 0 0 0 0 0 0 0 0 0 0 0 0 0 0 0 0 0 0 0 0 0 0 0 0 0 0 0 0 0 0 0 0 0 0 0 0 0 0 0 0 0 0 0 0 0 0 0 0 0 0 0 0 0 0 0 0 0 0 0 0 0 0 0 0 0 0 0 0 0 0 0 0 0 0 0 0 0 0 0 0 0 0 0 0 0 0 0 0 0 0 0 0 0 0 0 0 0 0 0 0 0 0 0 0 0 0 0 0 0 0 0 0 0 0 0 0 0 0 0 0 0 0 0 0 0 0 0 0 0 0 0 0 0 0 0 0 0 0 0 0 0 0 0 0 0 0 0 0 0 0 0 0 0 0 0 0 0 0 0 0 0 0 0 0 0 0 0 0 0 0 0 0 0 0 0 0 0 0 0 0 0 0 0 0 0 0 0 0 0 0 0 0 0 0 0 0 0 0 0 0 0 0 0 0 0 0 0 0 0 0 0 0 0 0 0 0 0 0 0 0 0 0 0 0 0 0 0 0 0 0 0 0 0 0 0 0 0 0 0 0 0 0 0 0 0 0 0 0 0 0 0 0 0 0 0 0 0 0 0 0 0 0 0 0 0 0 0 0 0 0 0 0 0 0 0 0 0 0 0 0 0 0 0 0 0 0 0 0 0 0 0 0 0 0 0 0 0 0 0 0 0 0 0 0 0 0 0 0 0 0 0 0 0 0 0 0 0 0 0 0 0 0 0 0 0 0 0 0 0 0 0 0 0 0 0 0 0 0 0 0 0 0 0 0 0 0 0 0 0 0 0 0 0 0 0 0 0 0 0 0 0 0 0 0 0 0 0 0 0 0 0 0 0 0 0 0 0 0 0 0 0 0 0 0 0 0 0 0 0 0 0 0 0 0 0 0 0 0 0 0 0 0 0 0 0 0 0 0 0 0 0 0 0 0 0 0 0 0 0 0 0 0 0 0 0 0 0 0 0 0 0 0 0 0 0 0 0 0 0 0 0 0 0 0 0 0 0 0 0 0 0 0 0 0 0 0 0 0 0 0 0 0 0 0 0 0 0 0 0 0 0 0 0 0 0 0 0 0 0 0 0 0 0 0 0 0 0 0 0 0 0 0 0 0 0 0 0 0 0 0 0 0 0 0 0 0 0 0 0 0 0 0 0 0 0 0 0 0 0 0 0 0 0 0 0 0 0 0 0 0 0 0 0 0 0 0 0 0 0 0 0 0 0 0 0 0 0 0 0 0 0 0 0 0 0 0 0 0 0 0 0 0 0 0 0 0 0 0 0 0 0 0 0 0 0 0 0 0 0 0 0 0 0 0 0 0 0 0 0 0 0 0 0 0 0 0 0 0 0 0 0 0 0 0 0 0 0 0 0 0 0 0 0 0 0 0 0 0 0 0 0 0 0 0 0 0 0 0 0 0 0 0 0 0 0 0 0 0 0 0 0 0 0 0 0 0 0 0 0 0 0 0 0 0 0 0 0 0 0 0 0 0 0 0 0 0 0 0 0 0 0 0 0 0 0 0 0 0 0 0 0 0 0 0 0 0 0 0 0 0 0 0 0 0 0 0 0 0 0 0 0 0 0 0 0 0 0 0 0 0 0 0 0 0 0 0 0 0 0 0 0 0 0 0 0 0 0 0 0 0 0 0 0 0 0 0 0 0 0 0 0 0 0 0 0 0 0 0 0 0 0 0 0 0 0 0 0 0 0 0 0 0 0 0 0 0 0 0 0 0 0 0 0 0 0 0 0 0 0 0 0 0 0 0 0 0 0 0 0 0 0 0 0 0 0 0 0 0 0 0 0 0 0 0 0 0 0 0 0 0 0 0 0 0 0 0 0 0 0 0 0 0 0 0 0 0 0 0 0 0 0 0 0 0 0 0 0 0 0 0 0 0 0 0 0 0 0 0 0 0 0 0 0 0 0 0 0 0 0 0 0 0 0 0 0 0 0 0 0 0 0 0 0 0 0 0 0 0 0 0 0 0 0 0 0 0 0 0 0 0 0 0 0 0 0 0 0 0 0 0 0 0 0 0 0 0 0 0 0 0 0 0 0 0 0 0 0 0 0 0 0 0 0 0 0 0 0 0 0 0 0 0 0 0 0 0 0 0 0 0 0 0 0 0 0 0 0 0 0 0 0 0 0 0 0 0 0 0 0 0 0 0 0 0 0 0 0 0 0 0 0 0 0 0 0 0 0 0 0 0 0 0 0 0 0 0 0 0 0 0 0 0 0 0 0 0 0 0 0 0 0 0 0 0 0 0 0 0 0 0 0 0 0 0 0 0 0 0 0 0 0 0 0 0 0 0 0 0 0 0 0 0 0 0 0 0 0 0 0 0 0 0 0 0 0 0 0 0 0 0 0 0 0 0 0 0 0 0 0 0 0 0 0 0 0 0 0 0 0 0 0 0 0 0 0 0 0 0 0 0 0 0 0 0 0 0 0 0 0 0 0 0 0 0 0 0 0 0 0 0 0 0 0 0 0 0 0 0 0 0 0 0 0 0 0 0 0 0 0 0 0 0 0 0 0 0 0 0 0 0 0 0 0 0 0 0 0 0 0 0 0 0 0 0 0 0 0 0 0 0 0 0 0 0 0 0 0 0 0 0 0 0 0 0 0 0 0 0 0 0 0 0 0 0 0 0 0 0 0 0 0 0 0 0 0 0 0 0 0 0 0 0 0 0 0 0 0 0 0 0 0 0 0 0 0 0 0 0 0 0 0 0 0 0 0 0 0 0 0 0 0 0 0 0 0 0 0 0 0 0 0 0 0 0 0 0 0 0 0 0 0 0 0 0 0 0 0 0 0 0 0 0 0 0 0 0 0 0 0 0 0 0 0 0 0 0 0 0 0 0 0 0 0 0 0 0 0 0 0 0 0 0 0 0 0 0 0 0 0 0 0 0 0 0 0 0 0 0 0 0 0 0 0 0 0 0 0 0 0 0 0 0 0 0 0 0 0 0 0 0 0 0 0 0 0 0 0 0 0 0 0 0 0 0 0 0 0 0 0 0 0 0 0 0 0 0 0 0 0 0 0 0 0 0 0 0 0 0 0 0 0 0 0 0 0 0 0 0 0 0 0 0 0 0 0 0 0 0 0 0 0 0 0 0 0 0 0 0 0 0 0 0 0 0 0 0 0 0 0 0 0 0 0 0 0 0 0 0 0 0 0 0 0 0 0 0 0 0 0 0 0 0 0 0 0 0 0 0 0 0 0 0 0 0 0 0 0 0 0 0 0 0 0 0 0 0 0 0 0 0 0 0 0 0 0 0 0 0 0 0 0 0 0 0 0 0 0 0 0 0 0 0 0 0 0 0 0 0 0 0 0 0 0 0 0 0 0 0 0 0 0 0 0 0 0 0 0 0 0 0 0 0 0 0 0 0 0 0 0 0 0 0 0 0 0 0 0 0 0 0 0 0 0 0 0 0 0 0 0 0 0 0 0 0 0 0 0 0 0 0 0 0 0 0 0 0 0 0 0 0 0 0 0 0 0 0 0 0 0 0 0 0 0 0 0 0 0 0 0 0 0 0 0 0 0 0 0 0 0 0 0 0 0 0 0 0 0 0 0 0 0 0 0 0 0 0 0 0 0 0 0 0 0 0 0 0 0 0 0 0 0 0 0 0 0 0 0 0 0 0 0 0 0 0 0 0 0 0 0 0 0 0 0 0 0 0 0 0 0 0 0 0 0 0 0 0 0 0 0 0 0 0 0 0 0 0 0 0 0 0 0 0 0 0 0 0 0 0 0 0 0 0 0 0 0 0 0 0 0 0 0 0 0 0 0 0 0 0 0 0 0 0 0 0 0 0 0 0 0 0 0 0 0 0 0 0 0 0 0 0 0 0 0 0 0 0 0 0 0 0 0 0 0 0 0 0 0 0 0 0 0 0 0 0 0 0 0 0 0 0 0 0 0 0 0 0 0 0 0 0 0 0 0 0 0 0 0 0 0 0 0 0 0 0 0 0 0 0 0 0 0 0 0 0 0 0 0 0 0 0 0 0 0 0 0 0 0 0 0 0 0 0 0 0 0 0 0 0 0 0 0 0 0 0 0 0 0 0 0 0 0 0 0 0 0 0 0 0 0 0 0 0 0 0 0 0 0 0 0 0 0 0 0 0 0 0 0 0 0 0 0 0 0 0 0 0 0 0 0 0 0 0 0 0 0 0 0 0 0 0 0 0 0 0 0 0 0 0 0 0 0 0 0 0 0 0 0 0 0 0 0 0 0 0 0 0 0 0 0 0 0 0 0 0 0 0 0 0 0 0 0 0 0 0 0 0 0 0 0 0 0 0 0 0 0 0 0 0 0 0 0 0 0 0 0 0 0 0 0 0 0 0 0 0 0 0 0 0 0 0 0 0 0 0 0 0 0 0 0 0 0 0 0 0 0 0 0 0 0 0 0 0 0 0 0 0 0 0 0 0 0 0 0 0 0 0 0 0 0 0 0 0 0 0 0 0 0 0 0 0 0 0 0 0 0 0 0 0 0 0 0 0 0 0 0 0 0 0 0 0 0 0 0 0 0 0 0 0 0 0 0 0 0 0 0 0 0 0 0 0 0 0 0 0 0 0 0 0 0 0 0 0 0 0 0 0 0 0 0 0 0 0 0 0 0 0 0 0 0 0 0 0 0 0 0 0 0 0 0 0 0 0 0 0 0 0 0 0 0 0 0 0 0 0 0 0 0 0 0 0 0 0 0 0 0 0 0 0 0 0 0 0 0 0 0 0 0 0 0 0 0 0 0 0 0 0 0 0 0 0 0 0 0 0 0 0 0 0 0 0 0 0 0 0 0 0 0 0 0 0 0 0 0 0 0 0 0 0 0 0 0 0 0 0 0 0 0 0 0 0 0 0 0 0 0 0 0 0 0 0 0 0 0 0 0 0 0 0 0 0 0 0 0 0 0 0 0 0 0 0 0 0 0 0 0 0 0 0 0 0 0 0 0 0 0 0 0 0 0 0 0 0 0 0 0 0 0 0 0 0 0 0 0 0 0 0 0 0 0 0 0 0 0 0 0 0 0 0 0 0 0 0 0 0 0 0 0 0 0 0 0 0 0 0 0 0 0 0 0 0 0 0 0 0 0 0 0 0 0 0 0 0 0 0 0 0 0 0 0 0 0 0 0 0 0 0 0 0 0 0 0 0 0 0 0 0 0 0 0 0 0 0 0 0 0 0 0 0 0 0 0 0 0 0 0 0 0 0 0 0 0 0 0 0 0 0 0 0 0 0 0 0 0 0 0 0 0 0 0 0 0 0 0 0 0 0 0 0 0 0 0 0 0 0 0 0 0 0 0 0 0 0 0 0 0 0 0 0 0 0 0 0 0 0 0 0 0 0 0 0 0 0 0 0 0 0 0 0 0 0 0 0 0 0 0 0 0 0 0 0 0 0 0 0 0 0 0 0 0 0 0 0 0 0 0 0 0 0 0 0 0 0 0 0 0 0 0 0 0 0 0 0 0 0 0 0 0 0 0 0 0 0 0 0 0 0 0 0 0 0 0 0 0 0 0 0 0 0 0 0 0 0 0 0 0 0 0 0 0 0 0 0 0 0 0 0 0 0 0 0 0 0 0 0 0 0 0 0 0 0 0 0 0 0 0 0 0 0 0 0 0 0 0 0 0 0 0 0 0 0 0 0 0 0 0 0 0 0 0 0 0 0 0 0 0 0 0 0 0 0 0 0 0 0 0 0 0 0 0 0 0 0 0 0 0 0 0 0 0 0 0 0 0 0 0 0 0 0 0 0 0 0 0 0 0 0 0 0 0 0 0 0 0 0 0 0 0 0 0 0 0 0 0 0 0 0 0 0 0 0 0 0 0 0 0 0 0 0 0 0 0 0 0 0 0 0 0 0 0 0 0 0 0 0 0 0 0 0 0 0 0 0 0 0 0 0 0 0 0 0 0 0 0 0 0 0 0 0 0 0 0 0 0 0 0 0 0 0 0 0 0 0 0 0 0 0 0 0 0 0 0 0 0 0 0 0 0 0 0 0 0 0 0 0 0 0 0 0 0 0 0 0 0 0 0 0 0 0 0 0 0 0 0 0 0 0 0 0 0 0 0 0 0 0 0 0 0 0 0 0 0 0 0 0 0 0 0 0 0 0 0 0 0 0 0 0 0 0 0 0 0 0 0 0 0 0 0 0 0 0 0 0 0 0 0 0 0 0 0 0 0 0 0 0 0 0 0 0 0 0 0 0 0 0 0 0 0 0 0 0 0 0 0 0 0 0 0 0 0 0 0 0 0 0 0 0 0 0 0 0 0 0 0 0 0 0 0 0 0 0 0 0 0 0 0 0 0 0 0 0 0 0 0 0 0 0 0 0 0 0 0 0 0 0 0 0 0 0 0 0 0 0 0 0 0 0 0 0 0 0 0 0 0 0 0 0 0 0 0 0 0 0 0 0 0 0 0 0 0 0 0 0 0 0 0 0 0 0 0 0 0 0 0 0 0 0 0 0 0 0 0 0 0 0 0 0 0 0 0 0 0 0 0 0 0 0 0 0 0 0 0 0 0 0 0 0 0 0 0 0 0 0 0 0 0 0 0 0 0 0 0 0 0 0 0 0 0 0 0 0 0 0 0 0 0 0 0 0 0 0 0 0 0 0 0 0 0 0 0 0 0 0 0 0 0 0 0 0 0 0 0 0 0 0 0 0 0 0 0 0 0 0 0 0 0 0 0 0 0 0 0 0 0 0 0 0 0 0 0 0 0 0 0 0 0 0 0 0 0 0 0 0 0 0 0 0 0 0 0 0 0 0 0 0 0 0 0 0 0 0 0 0 0 0 0 0 0 0 0 0 0 0 0 0 0 0 0 0 0 0 0 0 0 0 0 0 0 0 0 0 0 0 0 0 0 0 0 0 0 0 0 0 0 0 0 0 0 0 0 0 0 0 0 0 0 0 0 0 0 0 0 0 0 0 0 0 0 0 0 0 0 0 0 0 0 0 0 0 0 0 0 0 0 0 0 0 0 0 0 0 0 0 0 0 0 0 0 0 0 0 0 0 0 0 0 0 0 0 0 0 0 0 0 0 0 0 0 0 0 0 0 0 0 0 0 0 0 0 0 0 0 0 0 0 0 0 0 0 0 0 0 0 0 0 0 0 0 0 0 0 0 0 0 0 0 0 0 0 0 0 0 0 0 0 0 0 0 0 0 0 0 0 0 0 0 0 0 0 0 0 0 0 0 0 0 0 0 0 0 0 0 0 0 0 0 0 0 0 0 0 0 0 0 0 0 0 0 0 0 0 0 0 0 0 0 0 0 0 0 0 0 0 0 0 0 0 0 0 0 0 0 0 0 0 0 0 0 0 0 0 0 0 0 0 0 0 0 0 0 0 0 0 0 0 0 0 0 0 0 0 0 0 0 0 0 0 0 0 0 0 0 0 0 0 0 0 0 0 0 0 0 0 0 0 0 0 0 0 0 0 0 0 0 0 0 0 0 0 0 0 0 0 0 0 0 0 0 0 0 0 0 0 0 0 0 0 0 0 0 0 0 0 0 0 0 0 0 0 0 0 0 0 0 0 0 0 0 0 0 0 0 0 0 0 0 0 0 0 0 0 0 0 0 0 0 0 0 0 0 0 0 0 0 0 0 0 0 0 0 0 0 0 0 0 0 0 0 0 0 0 0 0 0 0 0 0 0 0 0 0 0 0 0 0 0 0 0 0 0 0 0 0 0 0 0 0 0 0 0 0 0 0 0 0 0 0 0 0 0 0 0 0 0 0 0 0 0 0 0 0 0 0 0 0 0 0 0 0 0 0 0 0 0 0 0 0 0 0 0 0 0 0 0 0 0 0 0 0 0 0 0 0 0 0 0 0 0 0 0 0 0 0 0 0 0 0 0 0 0 0 0 0 0 0 0 0 0 0 0 0 0 0 0 0 0 0 0 0 0 0 0 0 0 0 0 0 0 0 0 0 0 0 0 0 0 0 0 0 0 0 0 0 0 0 0 0 0 0 0 0 0 0 0 0 0 0 0 0 0 0 0 0 0 0 0 0 0 0 0 0 0 0 0 0 0 0 0 0 0 0 0 0 0 0 0 0 0 0 0 0 0 0 0 0 0 0 0 0 0 0 0 0 0 0 0 0 0 0 0 0 0 0 0 0 0 0 0 0 0 0 0 0 0 0 0 0 0 0 0 0 0 0 0 0 0 0 0 0 0 0 0 0 0 0 0 0 0 0 0 0 0 0 0 0 0 0 0 0 0 0 0 0 0 0 0 0 0 0 0 0 0 0 0 0 0 0 0 0 0 0 0 0 0 0 0 0 0 0 0 0 0 0 0 0 0 0 0 0 0 0 0 0 0 0 0 0 0 0 0 0 0 0 0 0 0 0 0 0 0 0 0 0 0 0 0 0 0 0 0 0 0 0 0 0 0 0 0 0 0 0 0 0 0 0 0 0 0 0 0 0 0 0 0 0 0 0 0 0 0 0 0 0 0 0 0 0 0 0 0 0 0 0 0 0 0 0 0 0 0 0 0 0 0 0 0 0 0 0 0 0 0 0 0 0 0 0 0 0 0 0 0 0 0 0 0 0 0 0 0 0 0 0 0 0 0 0 0 0 0 0 0 0 0 0 0 0 0 0 0 0 0 0 0 0 0 0 0 0 0 0 0 0 0 0 0 0 0 0 0 0 0 0 0 0 0 0 0 0 0 0 0 0 0 0 0 0 0 0 0 0 0 0 0 0 0 0 0 0 0 0 0 0 0 0 0 0 0 0 0 0 0 0 0 0 0 0 0 0 0 0 0 0 0 0 0 0 0 0 0 0 0 0 0 0 0 0 0 0 0 0 0 0 0 0 0 0 0 0 0 0 0 0 0 0 0 0 0 0 0 0 0 0 0 0 0 0 0 0 0 0 0 0 0 0 0 0 0 0 0 0 0 0 0 0 0 0 0 0 0 0 0 0 0 0 0 0 0 0 0 0 0 0 0 0 0 0 0 0 0 0 0 0 0 0 0 0 0 0 0 0 0 0 0 0 0 0 0 0 0 0 0 0 0 0 0 0 0 0 0 0 0 0 0 0 0 0 0 0 0 0 0 0 0 0 0 0 0 0 0 0 0 0 0 0 0 0 0 0 0 0 0 0 0 0 0 0 0 0 0 0 0 0 0 0 0 0 0 0 0 0 0 0 0 0 0 0 0 0 0 0 0 0 0 0 0 0 0 0 0 0 0 0 0 0 0 0 0 0 0 0 0 0 0 0 0 0 0 0 0 0 0 0 0 0 0 0 0 0 0 0 0 0 0 0 0 0 0 0 0 0 0 0 0 0 0 0 0 0 0 0 0 0 0 0 0 0 0 0 0 0 0 0 0 0 0 0 0 0 0 0 0 0 0 0 0 0 0 0 0 0 0 0 0 0 0 0 0 0 0 0 0 0 0 0 0 0 0 0 0 0 0 0 0 0 0 0 0 0 0 0 0 0 0 0 0 0 0 0 0 0 0 0 0 0 0 0 0 0 0 0 0 0 0 0 0 0 0 0 0 0 0 0 0 0 0 0 0 0 0 0 0 0 0 0 0 0 0 0 0 0 0 0 0 0 0 0 0 0 0 0 0 0 0 0 0 0 0 0 0 0 0 0 0 0 0 0 0 0 0 0 0 0 0 0 0 0 0 0 0 0 0 0 0 0 0 0 0 0 0 0 0 0 0 0 0 0 0 0 0 0 0 0 0 0 0 0 0 0 0 0 0 0 0 0 0 0 0 0 0 0 0 0 0 0 0 0 0 0 0 0 0 0 0 0 0 0 0 0 0 0 0 0 0 0 0 0 0 0 0 0 0 0 0 0 0 0 0 0 0 0 0 0 0 0 0 0 0 0 0 0 0 0 0 0 0 0 0 0 0 0 0 0 0 0 0 0 0 0 0 0 0 0 0 0 0 0 0 0 0 0 0 0 0 0 0 0 0 0 0 0 0 0 0 0 0 0 0 0 0 0 0 0 0 0 0 0 0 0 0 0 0 0 0 0 0 0 0 0 0 0 0 0 0 0 0 0 0 0 0 0 0 0 0 0 0 0 0 0 0 0 0 0 0 0 0 0 0 0 0 0 0 0 0 0 0 0 0 0 0 0 0 0 0 0 0 0 0 0 0 0 0 0 0 0 0 0 0 0 0 0 0 0 0 0 0 0 0 0 0 0 0 0 0 0 0 0 0 0 0 0 0 0 0 0 0 0 0 0 0 0 0 0 0 0 0 0 0 0 0 0 0 0 0 0 0 0 0 0 0 0 0 0 0 0 0 0 0 0 0 0 0 0 0 0 0 0 0 0 0 0 0 0 0 0 0 0 0 0 0 0 0 0 0 0 0 0 0 0 0 0 0 0 0 0 0 0 0 0 0 0 0 0 0 0 0 0 0 0 0 0 0 0 0 0 0 0 0 0 0 0 0 0 0 0 0 0 0 0 0 0 0 0 0 0 0 0 0 0 0 0 0 0 0 0 0 0 0 0 0 0 0 0 0 0 0 0 0 0 0 0 0 0 0 0 0 0 0 0 0 0 0 0 0 0 0 0 0 0 0 0 0 0 0 0 0 0 0 0 0 0 0 0 0 0 0 0 0 0 0 0 0 0 0 0 0 0 0 0 0 0 0 0 0 0 0 0 0 0 0 0 0 0 0 0 0 0 0 0 0 0 0 0 0 0 0 0 0 0 0 0 0 0 0 0 0 0 0 0 0 0 0 0 0 0 0 0 0 0 0 0 0 0 0 0 0 0 0 0 0 0 0 0 0 0 0 0 0 0 0 0 0 0 0 0 0 0 0 0 0 0 0 0 0 0 0 0 0 0 0 0 0 0 0 0 0 0 0 0 0 0 0 0 0 0 0 0 0 0 0 0 0 0 0 0 0 0 0 0 0 0 0 0 0 0 0 0 0 0 0 0 0 0 0 0 0 0 0 0 0 0 0 0 0 0 0 0 0 0 0 0 0 0 0 0 0 0 0 0 0 0 0 0 0 0 0 0 0 0 0 0 0 0 0 0 0 0 0 0 0 0 0 0 0 0 0 0 0 0 0 0 0 0 0 0 0 0 0 0 0 0 0 0 0 0 0 0 0 0 0 0 0 0 0 0 0 0 0 0 0 0 0 0 0 0 0 0 0 0 0 0 0 0 0 0 0 0 0 0 0 0 0 0 0 0 0 0 0 0 0 0 0 0 0 0 0 0 0 0 0 0 0 0 0 0 0 0 0 0 0 0 0 0 0 0 0 0 0 0 0 0 0 0 0 0 0 0 0 0 0 0 0 0 0 0 0 0 0 0 0 0 0 0 0 0 0 0 0 0 0 0 0 0 0 0 0 0 0 0 0 0 0 0 0 0 0 0 0 0 0 0 0 0 0 0 0 0 0 0 0 0 0 0 0 0 0 0 0 0 0 0 0 0 0 0 0 0 0 0 0 0 0 0 0 0 0 0 0 0 0 0 0 0 0 0 0 0 0 0 0 0 0 0 0 0 0 0 0 0 0 0 0 0 0 0 0 0 0 0 0 0 0 0 0 0 0 0 0 0 0 0 0 0 0 0 0 0 0 0 0 0 0 0 0 0 0 0 0 0 0 0 0 0 0 0 0 0 0 0 0 0 0 0 0 0 0 0 0 0 0 0 0 0 0 0 0 0 0 0 0 0 0 0 0 0 0 0 0 0 0 0 0 0 0 0 0 0 0 0 0 0 0 0 0 0 0 0 0 0 0 0 0 0 0 0 0 0 0 0 0 0 0 0 0 0 0 0 0 0 0 0 0 0 0 0 0 0 0 0 0 0 0 0 0 0 0 0 0 0 0 0 0 0 0 0 0 0 0 0 0 0 0 0 0 0 0 0 0 0 0 0 0 0 0 0 0 0 0 0 0 0 0 0 0 0 0 0 0 0 0 0 0 0 0 0 0 0 0 0 0 0 0 0 0 0 0 0 0 0 0 0 0 0 0 0 0 0 0 0 0 0 0 0 0 0 0 0 0 0 0 0 0 0 0 0 0 0 0 0 0 0 0 0 0 0 0 0 0 0 0 0 0 0 0 0 0 0 0 0 0 0 0 0 0 0 0 0 0 0 0 0 0 0 0 0 0 0 0 0 0 0 0 0 0 0 0 0 0 0 0 0 0 0 0 0 0 0 0 0 0 0 0 0 0 0 0 0 0 0 0 0 0 0 0 0 0 0 0 0 0 0 0 0 0 0 0 0 0 0 0 0 0 0 0 0 0 0 0 0 0 0 0 0 0 0 0 0 0 0 0 0 0 0 0 0 0 0 0 0 0 0 0 0 0 0 0 0 0 0 0 0 0 0 0 0 0 0 0 0 0 0 0 0 0 0 0 0 0 0 0 0 0 0 0 0 0 0 0 0 0 0 0 0 0 0 0 0 0 0 0 0 0 0 0 0 0 0 0 0 0 0 0 0 0 0 0 0 0 0 0 0 0 0 0 0 0 0 0 0 0 0 0 0 0 0 0 0 0 0 0 0 0 0 0 0 0 0 0 0 0 0 0 0 0 0 0 0 0 0 0 0 0 0 0 0 0 0 0 0 0 0 0 0 0 0 0 0 0 0 0 0 0 0 0 0 0 0 0 0 0 0 0 0 0 0 0 0 0 0 0 0 0 0 0 0 0 0 0 0 0 0 0 0 0 0 0 0 0 0 0 0 0 0 0 0 0 0 0 0 0 0 0 0 0 0 0 0 0 0 0 0 0 0 0 0 0 0 0 0 0 0 0 0 0 0 0 0 0 0 0 0 0 0 0 0 0 0 0 0 0 0 0 0 0 0 0 0 0 0 0 0 0 0 0 0 0 0 0 0 0 0 0 0 0 0 0 0 0 0 0 0 0 0 0 0 0 0 0 0 0 0 0 0 0 0 0 0 0 0 0 0 0 0 0 0 0 0 0 0 0 0 0 0 0 0 0 0 0 0 0 0 0 0 0 0 0 0 0 0 0 0 0 0 0 0 0 0 0 0 0 0 0 0 0 0 0 0 0 0 0 0 0 0 0 0 0 0 0 0 0 0 0 0 0 0 0 0 0 0 0 0 0 0 0 0 0 0 0 0 0 0 0 0 0 0 0 0 0 0 0 0 0 0 0 0 0 0 0 0 0 0 0 0 0 0 0 0 0 0 0 0 0 0 0 0 0 0 0 0 0 0 0 0 0 0 0 0 0 0 0 0 0 0 0 0 0 0 0 0 0 0 0 0 0 0 0 0 0 0 0 0 0 0 0 0 0 0 0 0 0 0 0 0 0 0 0 0 0 0 0 0 0 0 0 0 0 0 0 0 0 0 0 0 0 0 0 0 0 0 0 0 0 0 0 0 0 0 0 0 0 0 0 0 0 0 0 0 0 0 0 0 0 0 0 0 0 0 0 0 0 0 0 0 0 0 0 0 0 0 0 0 0 0 0 0 0 0 0 0 0 0 0 0 0 0 0 0 0 0 0 0 0 0 0 0 0 0 0 0 0 0 0 0 0 0 0 0 0 0 0 0 0 0 0 0 0 0 0 0 0 0 0 0 0 0 0 0 0 0 0 0 0 0 0 0 0 0 0 0 0 0 0 0 0 0 0 0 0 0 0 0 0 0 0 0 0 0 0 0 0 0 0 0 0 0 0 0 0 0 0 0 0 0 0 0 0 0 0 0 0 0 0 0 0 0 0 0 0 0 0 0 0 0 0 0 0 0 0 0 0 0 0 0 0 0 0 0 0 0 0 0 0 0 0 0 0 0 0 0 0 0 0 0 0 0 0 0 0 0 0 0 0 0 0 0 0 0 0 0 0 0 0 0 0 0 0 0 0 0 0 0 0 0 0 0 0 0 0 0 0 0 0 0 0 0 0 0 0 0 0 0 0 0 0 0 0 0 0 0 0 0 0 0 0 0 0 0 0 0 0 0 0 0 0 0 0 0 0 0 0 0 0 0 0 0 0 0 0 0 0 0 0 0 0 0 0 0 0 0 0 0 0 0 0 0 0 0 0 0 0 0 0 0 0 0 0 0 0 0 0 0 0 0 0 0 0 0 0 0 0 0 0 0 0 0 0 0 0 0 0 0 0 0 0 0 0 0 0 0 0 0 0 0 0 0 0 0 0 0 0 0 0 0 0 0 0 0 0 0 0 0 0 0 0 0 0 0 0 0 0 0 0 0 0 0 0 0 0 0 0 0 0 0 0 0 0 0 0 0 0 0 0 0 0 0 0 0 0 0 0 0 0 0 0 0 0 0 0 0 0 0 0 0 0 0 0 0 0 0 0 0 0 0 0 0 0 0 0 0 0 0 0 0 0 0 0 0 0 0 0 0 0 0 0 0 0 0 0 0 0 0 0 0 0 0 0 0 0 0 0 0 0 0 0 0 0 0 0 0 0 0 0 0 0 0 0 0 0 0 0 0 0 0 0 0 0 0 0 0 0 0 0 0 0 0 0 0 0 0 0 0 0 0 0 0 0 0 0 0 0 0 0 0 0 0 0 0 0 0 0 0 0 0 0 0 0 0 0 0 0 0 0 0 0 0 0 0 0 0 0 0 0 0 0 0 0 0 0 0 0 0 0 0 0 0 0 0 0 0 0 0 0 0 0 0 0 0 0 0 0 0 0 0 0 0 0 0 0 0 0 0 0 0 0 0 0 0 0 0 0 0 0 0 0 0 0 0 0 0 0 0 0 0 0 0 0 0 0 0 0 0 0 0 0 0 0 0 0 0 0 0 0 0 0 0 0 0 0 0 0 0 0 0 0 0 0 0 0 0 0 0 0 0 0 0 0 0 0 0 0 0 0 0 0 0 0 0 0 0 0 0 0 0 0 0 0 0 0 0 0 0 0 0 0 0 0 0 0 0 0 0 0 0 0 0 0 0 0 0 0 0 0 0 0 0 0 0 0 0 0 0 0 0 0 0 0 0 0 0 0 0 0 0 0 0 0 0 0 0 0 0 0 0 0 0 0 0 0 0 0 0 0 0 0 0 0 0 0 0 0 0 0 0 0 0 0 0 0 0 0 0 0 0 0 0 0 0 0 0 0 0 0 0 0 0 0 0 0 0 0 0 0 0 0 0 0 0 0 0 0 0 0 0 0 0 0 0 0 0 0 0 0 0 0 0 0 0 0 0 0 0 0 0 0 0 0 0 0 0 0 0 0 0 0 0 0 0 0 0 0 0 0 0 0 0 0 0 0 0 0 0 0 0 0 0 0 0 0 0 0 0 0 0 0 0 0 0 0 0 0 0 0 0 0 0 0 0 0 0 0 0 0 0 0 0 0 0 0 0 0 0 0 0 0 0 0 0 0 0 0 0 0 0 0 0 0 0 0 0 0 0 0 0 0 0 0 0 0 0 0 0 0 0 0 0 0 0 0 0 0 0 0 0 0 0 0 0 0 0 0 0 0 0 0 0 0 0 0 0 0 0 0 0 0 0 0 0 0 0 0 0 0 0 0 0 0 0 0 0 0 0 0 0 0 0 0 0 0 0 0 0 0 0 0 0 0 0 0 0 0 0 0 0 0 0 0 0 0 0 0 0 0 0 0 0 0 0 0 0 0 0 0 0 0 0 0 0 0 0 0 0 0 0 0 0 0 0 0 0 0 0 0 0 0 0 0 0 0 0 0 0 0 0 0 0 0 0 0 0 0 0 0 0 0 0 0 0 0 0 0 0 0 0 0 0 0 0 0 0 0 0 0 0 0 0 0 0 0 0 0 0 0 0 0 0 0 0 0 0 0 0 0 0 0 0 0 0 0 0 0 0 0 0 0 0 0 0 0 0 0 0 0 0 0 0 0 0 0 0 0 0 0 0 0 0 0 0 0 0 0 0 0 0 0 0 0 0 0 0 0 0 0 0 0 0 0 0 0 0 0 0 0 0 0 0 0 0 0 0 0 0 0 0 0 0 0 0 0 0 0 0 0 0 0 0 0 0 0 0 0 0 0 0 0 0 0 0 0 0 0 0 0 0 0 0 0 0 0 0 0 0 0 0 0 0 0 0 0 0 0 0 0 0 0 0 0 0 0 0 0 0 0 0 0 0 0 0 0 0 0 0 0 0 0 0 0 0 0 0 0 0 0 0 0 0 0 0 0 0 0 0 0 0 0 0 0 0 0 0 0 0 0 0 0 0 0 0 0 0 0 0 0 0 0 0 0 0 0 0 0 0 0 0 0 0 0 0 0 0 0 0 0 0 0 0 0 0 0 0 0 0 0 0 0 0 0 0 0 0 0 0 0 0 0 0 0 0 0 0 0 0 0 0 0 0 0 0 0 0 0 0 0 0 0 0 0 0 0 0 0 0 0 0 0 0 0 0 0 0 0 0 0 0 0 0 0 0 0 0 0 0 0 0 0 0 0 0 0 0 0 0 0 0 0 0 0 0 0 0 0 0 0 0 0 0 0 0 0 0 0 0 0 0 0 0 0 0 0 0 0 0 0 0 0 0 0 0 0 0 0 0 0 0 0 0 0 0 0 0 0 0 0 0 0 0 0 0 0 0 0 0 0 0 0 0 0 0 0 0 0 0 0 0 0 0 0 0 0 0 0 0 0 0 0 0 0 0 0 0 0 0 0 0 0 0 0 0 0 0 0 0 0 0 0 0 0 0 0 0 0 0 0 0 0 0 0 0 0 0 0 0 0 0 0 0 0 0 0 0 0 0 0 0 0 0 0 0 0 0 0 0 0 0 0 0 0 0 0 0 0 0 0 0 0 0 0 0 0 0 0 0 0 0 0 0 0 0 0 0 0 0 0 0 0 0 0 0 0 0 0 0 0 0 0 0 0 0 0 0 0 0 0 0 0 0 0 0 0 0 0 0 0 0 0 0 0 0 0 0 0 0 0 0 0 0 0 0 0 0 0 0 0 0 0 0 0 0 0 0 0 0 0 0 0 0 0 0 0 0 0 0 0 0 0 0 0 0 0 0 0 0 0 0 0 0 0 0 0 0 0 0 0 0 0 0 0 0 0 0 0 0 0 0 0 0 0 0 0 0 0 0 0 0 0 0 0 0 0 0 0 0 0 0 0 0 0 0 0 0 0 0 0 0 0 0 0 0 0 0 0 0 0 0 0 0 0 0 0 0 0 0 0 0 0 0 0 0 0 0 0 0 0 0 0 0 0 0 0 0 0 0 0 0 0 0 0 0 0 0 0 0 0 0 0 0 0 0 0 0 0 0 0 0 0 0 0 0 0 0 0 0 0 0 0 0 0 0 0 0 0 0 0 0 0 0 0 0 0 0 0 0 0 0 0 0 0 0 0 0 0 0 0 0 0 0 0 0 0 0 0 0 0 0 0 0 0 0 0 0 0 0 0 0 0 0 0 0 0 0 0 0 0 0 0 0 0 0 0 0 0 0 0 0 0 0 0 0 0 0 0 0 0 0 0 0 0 0 0 0 0 0 0 0 0 0 0 0 0 0 0 0 0 0 0 0 0 0 0 0 0 0 0 0 0 0 0 0 0 0 0 0 0 0 0 0 0 0 0 0 0 0 0 0 0 0 0 0 0 0 0 0 0 0 0 0 0 0 0 0 0 0 0 0 0 0 0 0 0 0 0 0 0 0 0 0 0 0 0 0 0 0 0 0 0 0 0 0 0 0 0 0 0 0 0 0 0 0 0 0 0 0 0 0 0 0 0 0 0 0 0 0 0 0 0 0 0 0 0 0 0 0 0 0 0 0 0 0 0 0 0 0 0 0 0 0 0 0 0 0 0 0 0 0 0 0 0 0 0 0 0 0 0 0 0 0 0 0 0 0 0 0 0 0 0 0 0 0 0 0 0 0 0 0 0 0 0 0 0 0 0 0 0 0 0 0 0 0 0 0 0 0 0 0 0 0 0 0 0 0 0 0 0 0 0 0 0 0 0 0 0 0 0 0 0 0 0 0 0 0 0 0 0 0 0 0 0 0 0 0 0 0 0 0 0 0 0 0 0 0 0 0 0 0 0 0 0 0 0 0 0 0 0 0 0 0 0 0 0 0 0 0 0 0 0 0 0 0 0 0 0 0 0 0 0 0 0 0 0 0 0 0 0 0 0 0 0 0 0 0 0 0 0 0 0 0 0 0 0 0 0 0 0 0 0 0 0 0 0 0 0 0 0 0 0 0 0 0 0 0 0 0 0 0 0 0 0 0 0 0 0 0 0 0 0 0 0 0 0 0 0 0 0 0 0 0 0 0 0 0 0 0 0 0 0 0 0 0 0 0 0 0 0 0 0 0 0 0 0 0 0 0 0 0 0 0 0 0 0 0 0 0 0 0 0 0 0 0 0 0 0 0 0 0 0 0 0 0 0 0 0 0 0 0 0 0 0 0 0 0 0 0 0 0 0 0 0 0 0 0 0 0 0 0 0 0 0 0 0 0 0 0 0 0 0 0 0 0 0 0 0 0 0 0 0 0 0 0 0 0 0 0 0 0 0 0 0 0 0 0 0 0 0 0 0 0 0 0 0 0 0 0 0 0 0 0 0 0 0 0 0 0 0 0 0 0 0 0 0 0 0 0 0 0 0 0 0 0 0 0 0 0 0 0 0 0 0 0 0 0 0 0 0 0 0 0 0 0 0 0 0 0 0 0 0 0 0 0 0 0 0 0 0 0 0 0 0 0 0 0 0 0 0 0 0 0 0 0 0 0 0 0 0 0 0 0 0 0 0 0 0 0 0 0 0 0 0 0 0 0 0 0 0 0 0 0 0 0 0 0 0 0 0 0 0 0 0 0 0 0 0 0 0 0 0 0 0 0 0 0 0 0 0 0 0 0 0 0 0 0 0 0 0 0 0 0 0 0 0 0 0 0 0 0 0 0 0 0 0 0 0 0 0 0 0 0 0 0 0 0 0 0 0 0 0 0 0 0 0 0 0 0 0 0 0 0 0 0 0 0 0 0 0 0 0 0 0 0 0 0 0 0 0 0 0 0 0 0 0 0 0 0 0 0 0 0 0 0 0 0 0 0 0 0 0 0 0 0 0 0 0 0 0 0 0 0 0 0 0 0 0 0 0 0 0 0 0 0 0 0 0 0 0 0 0 0 0 0 0 0 0 0 0 0 0 0 0 0 0 0 0 0 0 0 0 0 0 0 0 0 0 0 0 0 0 0 0 0 0 0 0 0 0 0 0 0 0 0 0 0 0 0 0 0 0 0 0 0 0 0 0 0 0 0 0 0 0 0 0 0 0 0 0 0 0 0 0 0 0 0 0 0 0 0 0 0 0 0 0 0 0 0 0 0 0 0 0 0 0 0 0 0 0 0 0 0 0 0 0 0 0 0 0 0 0 0 0 0 0 0 0 0 0 0 0 0 0 0 0 0 0 0 0 0 0 0 0 0 0 0 0 0 0 0 0 0 0 0 0 0 0 0 0 0 0 0 0 0 0 0 0 0 0 0 0 0 0 0 0 0 0 0 0 0 0 0 0 0 0 0 0 0 0 0 0 0 0 0 0 0 0 0 0 0 0 0 0 0 0 0 0 0 0 0 0 0 0 0 0 0 0 0 0 0 0 0 0 0 0 0 0 0 0 0 0 0 0 0 0 0 0 0 0 0 0 0 0 0 0 0 0 0 0 0 0 0 0 0 0 0 0 0 0 0 0 0 0 0 0 0 0 0 0 0 0 0 0 0 0 0 0 0 0 0 0 0 0 0 0 0 0 0 0 0 0 0 0 0 0 0 0 0 0 0 0 0 0 0 0 0 0 0 0 0 0 0 0 0 0 0 0 0 0 0 0 0 0 0 0 0 0 0 0 0 0 0 0 0 0 0 0 0 0 0 0 0 0 0 0 0 0 0 0 0 0 0 0 0 0 0 0 0 0 0 0 0 0 0 0 0 0 0 0 0 0 0 0 0 0 0 0 0 0 0 0 0 0 0 0 0 0 0 0 0 0 0 0 0 0 0 0 0 0 0 0 0 0 0 0 0 0 0 0 0 0 0 0 0 0 0 0 0 0 0 0 0 0 0 0 0 0 0 0 0 0 0 0 0 0 0 0 0 0 0 0 0 0 0 0 0 0 0 0 0 0 0 0 0 0 0 0 0 0 0 0 0 0 0 0 0 0 0 0 0 0 0 0 0 0 0 0 0 0 0 0 0 0 0 0 0 0 0 0 0 0 0 0 0 0 0 0 0 0 0 0 0 0 0 0 0 0 0 0 0 0 0 0 0 0 0 0 0 0 0 0 0 0 0 0 0 0 0 0 0 0 0 0 0 0 0 0 0 0 0 0 0 0 0 0 0 0 0 0 0 0 0 0 0 0 0 0 0 0 0 0 0 0 0 0 0 0 0 0 0 0 0 0 0 0 0 0 0 0 0 0 0 0 0 0 0 0 0 0 0 0 0 0 0 0 0 0 0 0 0 0 0 0 0 0 0 0 0 0 0 0 0 0 0 0 0 0 0 0 0 0 0 0 0 0 0 0 0 0 0 0 0 0 0 0 0 0 0 0 0 0 0 0 0 0 0 0 0 0 0 0 0 0 0 0 0 0 0 0 0 0 0 0 0 0 0 0 0 0 0 0 0 0 0 0 0 0 0 0 0 0 0 0 0 0 0 0 0 0 0 0 0 0 0 0 0 0 0 0 0 0 0 0 0 0 0 0 0 0 0 0 0 0 0 0 0 0 0 0 0 0 0 0 0 0 0 0 0 0 0 0 0 0 0 0 0 0 0 0 0 0 0 0 0 0 0 0 0 0 0 0 0 0 0 0 0 0 0 0 0 0 0 0 0 0 0 0 0 0 0 0 0 0 0 0 0 0 0 0 0 0 0 0 0 0 0 0 0 0 0 0 0 0 0 0 0 0 0 0 0 0 0 0 0 0 0 0 0 0 0 0 0 0 0 0 0 0 0 0 0 0 0 0 0 0 0 0 0 0 0 0 0 0 0 0 0 0 0 0 0 0 0 0 0 0 0 0 0 0 0 0 0 0 0 0 0 0 0 0 0 0 0 0 0 0 0 0 0 0 0 0 0 0 0 0 0 0 0 0 0 0 0 0 0 0 0 0 0 0 0 0 0 0 0 0 0 0 0 0 0 0 0 0 0 0 0 0 0 0 0 0 0 0 0 0 0 0 0 0 0 0 0 0 0 0 0 0 0 0 0 0 0 0 0 0 0 0 0 0 0 0 0 0 0 0 0 0 0 0 0 0 0 0 0 0 0 0 0 0 0 0 0 0 0 0 0 0 0 0 0 0 0 0 0 0 0 0 0 0 0 0 0 0 0 0 0 0 0 0 0 0 0 0 0 0 0 0 0 0 0 0 0 0 0 0 0 0 0 0 0 0 0 0 0 0 0 0 0 0 0 0 0 0 0 0 0 0 0 0 0 0 0 0 0 0 0 0 0 0 0 0 0 0 0 0 0 0 0 0 0 0 0 0 0 0 0 0 0 0 0 0 0 0 0 0 0 0 0 0 0 0 0 0 0 0 0 0 0 0 0 0 0 0 0 0 0 0 0 0 0 0 0 0 0 0 0 0 0 0 0 0 0 0 0 0 0 0 0 0 0 0 0 0 0 0 0 0 0 0 0 0 0 0 0 0 0 0 0 0 0 0 0 0 0 0 0 0 0 0 0 0 0 0 0 0 0 0 0 0 0 0 0 0 0 0 0 0 0 0 0 0 0 0 0 0 0 0 0 0 0 0 0 0 0 0 0 0 0 0 0 0 0 0 0 0 0 0 0 0 0 0 0 0 0 0 0 0 0 0 0 0 0 0 0 0 0 0 0 0 0 0 0 0 0 0 0 0 0 0 0 0 0 0 0 0 0 0 0 0 0 0 0 0 0 0 0 0 0 0 0 0 0 0 0 0 0 0 0 0 0 0 0 0 0 0 0 0 0 0 0 0 0 0 0 0 0 0 0 0 0 0 0 0 0 0 0 0 0 0 0 0 0 0 0 0 0 0 0 0 0 0 0 0 0 0 0 0 0 0 0 0 0 0 0 0 0 0 0 0 0 0 0 0 0 0 0 0 0 0 0 0 0 0 0 0 0 0 0 0 0 0 0 0 0 0 0 0 0 0 0 0 0 0 0 0 0 0 0 0 0 0 0 0 0 0 0 0 0 0 0 0 0 0 0 0 0 0 0 0 0 0 0 0 0 0 0 0 0 0 0 0 0 0 0 0 0 0 0 0 0 0 0 0 0 0 0 0 0 0 0 0 0 0 0 0 0 0 0 0 0 0 0 0 0 0 0 0 0 0 0 0 0 0 0 0 0 0 0 0 0 0 0 0 0 0 0 0 0 0 0 0 0 0 0 0 0 0 0 0 0 0 0 0 0 0 0 0 0 0 0 0 0 0 0 0 0 0 0 0 0 0 0 0 0 0 0 0 0 0 0 0 0 0 0 0 0 0 0 0 0 0 0 0 0 0 0 0 0 0 0 0 0 0 0 0 0 0 0 0 0 0 0 0 0 0 0 0 0 0 0 0 0 0 0 0 0 0 0 0 0 0 0 0 0 0 0 0 0 0 0 0 0 0 0 0 0 0 0 0 0 0 0 0 0 0 0 0 0 0 0 0 0 0 0 0 0 0 0 0 0 0 0 0 0 0 0 0 0 0 0 0 0 0 0 0 0 0 0 0 0 0 0 0 0 0 0 0 0 0 0 0 0 0 0 0 0 0 0 0 0 0 0 0 0 0 0 0 0 0 0 0 0 0 0 0 0 0 0 0 0 0 0 0 0 0 0 0 0 0 0 0 0 0 0 0 0 0 0 0 0 0 0 0 0 0 0 0 0 0 0 0 0 0 0 0 0 0 0 0 0 0 0 0 0 0 0 0 0 0 0 0 0 0 0 0 0 0 0 0 0 0 0 0 0 0 0 0 0 0 0 0 0 0 0 0 0 0 0 0 0 0 0 0 0 0 0 0 0 0 0 0 0 0 0 0 0 0 0 0 0 0 0 0 0 0 0 0 0 0 0 0 0 0 0 0 0 0 0 0 0 0 0 0 0 0 0 0 0 0 0 0 0 0 0 0 0 0 0 0 0 0 0 0 0 0 0 0 0 0 0 0 0 0 0 0 0 0 0 0 0 0 0 0 0 0 0 0 0 0 0 0 0 0 0 0 0 0 0 0 0 0 0 0 0 0 0 0 0 0 0 0 0 0 0 0 0 0 0 0 0 0 0 0 0 0 0 0 0 0 0 0 0 0 0 0 0 0 0 0 0 0 0 0 0 0 0 0 0 0 0 0 0 0 0 0 0 0 0 0 0 0 0 0 0 0 0 0 0 0 0 0 0 0 0 0 0 0 0 0 0 0 0 0 0 0 0 0 0 0 0 0 0 0 0 0 0 0 0 0 0 0 0 0 0 0 0 0 0 0 0 0 0 0 0 0 0 0 0 0 0 0 0 0 0 0 0 0 0 0 0 0 0 0 0 0 0 0 0 0 0 0 0 0 0 0 0 0 0 0 0 0 0 0 0 0 0 0 0 0 0 0 0 0 0 0 0 0 0 0 0 0 0 0 0 0 0 0 0 0 0 0 0 0 0 0 0 0 0 0 0 0 0 0 0 0 0 0 0 0 0 0 0 0 0 0 0 0 0 0 0 0 0 0 0 0 0 0 0 0 0 0 0 0 0 0 0 0 0 0 0 0 0 0 0 0 0 0 0 0 0 0 0 0 0 0 0 0 0 0 0 0 0 0 0 0 0 0 0 0 0 0 0 0 0 0 0 0 0 0 0 0 0 0 0 0 0 0 0 0 0 0 0 0 0 0 0 0 0 0 0 0 0 0 0 0 0 0 0 0 0 0 0 0 0 0 0 0 0 0 0 0 0 0 0 0 0 0 0 0 0 0 0 0 0 0 0 0 0 0 0 0 0 0 0 0 0 0 0 0 0 0 0 0 0 0 0 0 0 0 0 0 0 0 0 0 0 0 0 0 0 0 0 0 0 0 0 0 0 0 0 0 0 0 0 0 0 0 0 0 0 0 0 0 0 0 0 0 0 0 0 0 0 0 0 0 0 0 0 0 0 0 0 0 0 0 0 0 0 0 0 0 0 0 0 0 0 0 0 0 0 0 0 0 0 0 0 0 0 0 0 0 0 0 0 0 0 0 0 0 0 0 0 0 0 0 0 0 0 0 0 0 0 0 0 0 0 0 0 0 0 0 0 0 0 0 0 0 0 0 0 0 0 0 0 0 0 0 0 0 0 0 0 0 0 0 0 0 0 0 0 0 0 0 0 0 0 0 0 0 0 0 0 0 0 0 0 0 0 0 0 0 0 0 0 0 0 0 0 0 0 0 0 0 0 0 0 0 0 0 0 0 0 0 0 0 0 0 0 0 0 0 0 0 0 0 0 0 0 0 0 0 0 0 0 0 0 0 0 0 0 0 0 0 0 0 0 0 0 0 0 0 0 0 0 0 0 0 0 0 0 0 0 0 0 0 0 0 0 0 0 0 0 0 0 0 0 0 0 0 0 0 0 0 0 0 0 0 0 0 0 0 0 0 0 0 0 0 0 0 0 0 0 0 0 0 0 0 0 0 0 0 0 0 0 0 0 0 0 0 0 0 0 0 0 0 0 0 0 0 0 0 0 0 0 0 0 0 0 0 0 0 0 0 0 0 0 0 0 0 0 0 0 0 0 0 0 0 0 0 0 0 0 0 0 0 0 0 0 0 0 0 0 0 0 0 0 0 0 0 0 0 0 0 0 0 0 0 0 0 0 0 0 0 0 0 0 0 0 0 0 0 0 0 0 0 0 0 0 0 0 0 0 0 0 0 0 0 0 0 0 0 0 0 0 0 0 0 0 0 0 0 0 0 0 0 0 0 0 0 0 0 0 0 0 0 0 0 0 0 0 0 0 0 0 0 0 0 0 0 0 0 0 0 0 0 0 0 0 0 0 0 0 0 0 0 0 0 0 0 0 0 0 0 0 0 0 0 0 0 0 0 0 0 0 0 0 0 0 0 0 0 0 0 0 0 0 0 0 0 0 0 0 0 0 0 0 0 0 0 0 0 0 0 0 0 0 0 0 0 0 0 0 0 0 0 0 0 0 0 0 0 0 0 0 0 0 0 0 0 0 0 0 0 0 0 0 0 0 0 0 0 0 0 0 0 0 0 0 0 0 0 0 0 0 0 0 0 0 0 0 0 0 0 0 0 0 0 0 0 0 0 0 0 0 0 0 0 0 0 0 0 0 0 0 0 0 0 0 0 0 0 0 0 0 0 0 0 0 0 0 0 0 0 0 0 0 0 0 0 0 0 0 0 0 0 0 0 0 0 0 0 0 0 0 0 0 0 0 0 0 0 0 0 0 0 0 0 0 0 0 0 0 0 0 0 0 0 0 0 0 0 0 0 0 0 0 0 0 0 0 0 0 0 0 0 0 0 0 0 0 0 0 0 0 0 0 0 0 0 0 0 0 0 0 0 0 0 0 0 0 0 0 0 0 0 0 0 0 0 0 0 0 0 0 0 0 0 0 0 0 0 0 0 0 0 0 0 0 0 0 0 0 0 0 0 0 0 0 0 0 0 0 0 0 0 0 0 0 0 0 0 0 0 0 0 0 0 0 0 0 0 0 0 0 0 0 0 0 0 0 0 0 0 0 0 0 0 0 0 0 0 0 0 0 0 0 0 0 0 0 0 0 0 0 0 0 0 0 0 0 0 0 0 0 0 0 0 0 0 0 0 0 0 0 0 0 0 0 0 0 0 0 0 0 0 0 0 0 0 0 0 0 0 0 0 0 0 0 0 0 0 0 0 0 0 0 0 0 0 0 0 0 0 0 0 0 0 0 0 0 0 0 0 0 0 0 0 0 0 0 0 0 0 0 0 0 0 0 0 0 0 0 0 0 0 0 0 0 0 0 0 0 0 0 0 0 0 0 0 0 0 0 0 0 0 0 0 0 0 0 0 0 0 0 0 0 0 0 0 0 0 0 0 0 0 0 0 0 0 0 0 0 0 0 0 0 0 0 0 0 0 0 0 0 0 0 0 0 0 0 0 0 0 0 0 0 0 0 0 0 0 0 0 0 0 0 0 0 0 0 0 0 0 0 0 0 0 0 0 0 0 0 0 0 0 0 0 0 0 0 0 0 0 0 0 0 0 0 0 0 0 0 0 0 0 0 0 0 0 0 0 0 0 0 0 0 0 0 0 0 0 0 0 0 0 0 0 0 0 0 0 0 0 0 0 0 0 0 0 0 0 0 0 0 0 0 0 0 0 0 0 0 0 0 0 0 0 0 0 0 0 0 0 0 0 0 0 0 0 0 0 0 0 0 0 0 0 0 0 0 0 0 0 0 0 0 0 0 0 0 0 0 0 0 0 0 0 0 0 0 0 0 0 0 0 0 0 0 0 0 0 0 0 0 0 0 0 0 0 0 0 0 0 0 0 0 0 0 0 0 0 0 0 0 0 0 0 0 0 0 0 0 0 0 0 0 0 0 0 0 0 0 0 0 0 0 0 0 0 0 0 0 0 0 0 0 0 0 0 0 0 0 0 0 0 0 0 0 0 0 0 0 0 0 0 0 0 0 0 0 0 0 0 0 0 0 0 0 0 0 0 0 0 0 0 0 0 0 0 0 0 0 0 0 0 0 0 0 0 0 0 0 0 0 0 0 0 0 0 0 0 0 0 0 0 0 0 0 0 0 0 0 0 0 0 0 0 0 0 0 0 0 0 0 0 0 0 0 0 0 0 0 0 0 0 0 0 0 0 0 0 0 0 0 0 0 0 0 0 0 0 0 0 0 0 0 0 0 0 0 0 0 0 0 0 0 0 0 0 0 0 0 0 0 0 0 0 0 0 0 0 0 0 0 0 0 0 0 0 0 0 0 0 0 0 0 0 0 0 0 0 0 0 0 0 0 0 0 0 0 0 0 0 0 0 0 0 0 0 0 0 0 0 0 0 0 0 0 0 0 0 0 0 0 0 0 0 0 0 0 0 0 0 0 0 0 0 0 0 0 0 0 0 0 0 0 0 0 0 0 0 0 0 0 0 0 0 0 0 0 0 0 0 0 0 0 0 0 0 0 0 0 0 0 0 0 0 0 0 0 0 0 0 0 0 0 0 0 0 0 0 0 0 0 0 0 0 0 0 0 0 0 0 0 0 0 0 0 0 0 0 0 0 0 0 0 0 0 0 0 0 0 0 0 0 0 0 0 0 0 0 0 0 0 0 0 0 0 0 0 0 0 0 0 0 0 0 0 0 0 0 0 0 0 0 0 0 0 0 0 0 0 0 0 0 0 0 0 0 0 0 0 0 0 0 0 0 0 0 0 0 0 0 0 0 0 0 0 0 0 0 0 0 0 0 0 0 0 0 0 0 0 0 0 0 0 0 0 0 0 0 0 0 0 0 0 0 0 0 0 0 0 0 0 0 0 0 0 0 0 0 0 0 0 0 0 0 0 0 0 0 0 0 0 0 0 0 0 0 0 0 0 0 0 0 0 0 0 0 0 0 0 0 0 0 0 0 0 0 0 0 0 0 0 0 0 0 0 0 0 0 0 0 0 0 0 0 0 0 0 0 0 0 0 0 0 0 0 0 0 0 0 0 0 0 0 0 0 0 0 0 0 0 0 0 0 0 0 0 0 0 0 0 0 0 0 0 0 0 0 0 0 0 0 0 0 0 0 0 0 0 0 0 0 0 0 0 0 0 0 0 0 0 0 0 0 0 0 0 0 0 0 0 0 0 0 0 0 0 0 0 0 0 0 0 0 0 0 0 0 0 0 0 0 0 0 0 0 0 0 0 0 0 0 0 0 0 0 0 0 0 0 0 0 0 0 0 0 0 0 0 0 0 0 0 0 0 0 0 0 0 0 0 0 0 0 0 0 0 0 0 0 0 0 0 0 0 0 0 0 0 0 0 0 0 0 0 0 0 0 0 0 0 0 0 0 0 0 0 0 0 0 0 0 0 0 0 0 0 0 0 0 0 0 0 0 0 0 0 0 0 0 0 0 0 0 0 0 0 0 0 0 0 0 0 0 0 0 0 0 0 0 0 0 0 0 0 0 0 0 0 0 0 0 0 0 0 0 0 0 0 0 0 0 0 0 0 0 0 0 0 0 0 0 0 0 0 0 0 0 0 0 0 0 0 0 0 0 0 0 0 0 0 0 0 0 0 0 0 0 0 0 0 0 0 0 0 0 0 0 0 0 0 0 0 0 0 0 0 0 0 0 0 0 0 0 0 0 0 0 0 0 0 0 0 0 0 0 0 0 0 0 0 0 0 0 0 0 0 0 0 0 0 0 0 0 0 0 0 0 0 0 0 0 0 0 0 0 0 0 0 0 0 0 0 0 0 0 0 0 0 0 0 0 0 0 0 0 0 0 0 0 0 0 0 0 0 0 0 0 0 0 0 0 0 0 0 0 0 0 0 0 0 0 0 0 0 0 0 0 0 0 0 0 0 0 0 0 0 0 0 0 0 0 0 0 0 0 0 0 0 0 0 0 0 0 0 0 0 0 0 0 0 0 0 0 0 0 0 0 0 0 0 0 0 0 0 0 0 0 0 0 0 0 0 0 0 0 0 0 0 0 0 0 0 0 0 0 0 0 0 0 0 0 0 0 0 0 0 0 0 0 0 0 0 0 0 0 0 0 0 0 0 0 0 0 0 0 0 0 0 0 0 0 0 0 0 0 0 0 0 0 0 0 0 0 0 0 0 0 0 0 0 0 0 0 0 0 0 0 0 0 0 0 0 0 0 0 0 0 0 0 0 0 0 0 0 0 0 0 0 0 0 0 0 0 0 0 0 0 0 0 0 0 0 0 0 0 0 0 0 0 0 0 0 0 0 0 0 0 0 0 0 0 0 0 0 0 0 0 0 0 0 0 0 0 0 0 0 0 0 0 0 0 0 0 0 0 0 0 0 0 0 0 0 0 0 0 0 0 0 0 0 0 0 0 0 0 0 0 0 0 0 0 0 0 0 0 0 0 0 0 0 0 0 0 0 0 0 0 0 0 0 0 0 0 0 0 0 0 0 0 0 0 0 0 0 0 0 0 0 0 0 0 0 0 0 0 0 0 0 0 0 0 0 0 0 0 0 0 0 0 0 0 0 0 0 0 0 0 0 0 0 0 0 0 0 0 0 0 0 0 0 0 0 0 0 0 0 0 0 0 0 0 0 0 0 0 0 0 0 0 0 0 0 0 0 0 0 0 0 0 0 0 0 0 0 0 0 0 0 0 0 0 0 0 0 0 0 0 0 0 0 0 0 0 0 0 0 0 0 0 0 0 0 0 0 0 0 0 0 0 0 0 0 0 0 0 0 0 0 0 0 0 0 0 0 0 0 0 0 0 0 0 0 0 0 0 0 0 0 0 0 0 0 0 0 0 0 0 0 0 0 0 0 0 0 0 0 0 0 0 0 0 0 0 0 0 0 0 0 0 0 0 0 0 0 0 0 0 0 0 0 0 0 0 0 0 0 0 0 0 0 0 0 0 0 0 0 0 0 0 0 0 0 0 0 0 0 0 0 0 0 0 0 0 0 0 0 0 0 0 0 0 0 0 0 0 0 0 0 0 0 0 0 0 0 0 0 0 0 0 0 0 0 0 0 0 0 0 0 0 0 0 0 0 0 0 0 0 0 0 0 0 0 0 0 0 0 0 0 0 0 0 0 0 0 0 0 0 0 0 0 0 0 0 0 0 0 0 0 0 0 0 0 0 0 0 0 0 0 0 0 0 0 0 0 0 0 0 0 0 0 0 0 0 0 0 0 0 0 0 0 0 0 0 0 0 0 0 0 0 0 0 0 0 0 0 0 0 0 0 0 0 0 0 0 0 0 0 0 0 0 0 0 0 0 0 0 0 0 0 0 0 0 0 0 0 0 0 0 0 0 0 0 0 0 0 0 0 0 0 0 0 0 0 0 0 0 0 0 0 0 0 0 0 0 0 0 0 0 0 0 0 0 0 0 0 0 0 0 0 0 0 0 0 0 0 0 0 0 0 0 0 0 0 0 0 0 0 0 0 0 0 0 0 0 0 0 0 0 0 0 0 0 0 0 0 0 0 0 0 0 0 0 0 0 0 0 0 0 0 0 0 0 0 0 0 0 0 0 0 0 0 0 0 0 0 0 0 0 0 0 0 0 0 0 0 0 0 0 0 0 0 0 0 0 0 0 0 0 0 0 0 0 0 0 0 0 0 0 0 0 0 0 0 0 0 0 0 0 0 0 0 0 0 0 0 0 0 0 0 0 0 0 0 0 0 0 0 0 0 0 0 0 0 0 0 0 0 0 0 0 0 0 0 0 0 0 0 0 0 0 0 0 0 0 0 0 0 0 0 0 0 0 0 0 0 0 0 0 0 0 0 0 0 0 0 0 0 0 0 0 0 0 0 0 0 0 0 0 0 0 0 0 0 0 0 0 0 0 0 0 0 0 0 0 0 0 0 0 0 0 0 0 0 0 0 0 0 0 0 0 0 0 0 0 0 0 0 0 0 0 0 0 0 0 0 0 0 0 0 0 0 0 0 0 0 0 0 0 0 0 0 0 0 0 0 0 0 0 0 0 0 0 0 0 0 0 0 0 0 0 0 0 0 0 0 0 0 0 0 0 0 0 0 0 0 0 0 0 0 0 0 0 0 0 0 0 0 0 0 0 0 0 0 0 0 0 0 0 0 0 0 0 0 0 0 0 0 0 0 0 0 0 0 0 0 0 0 0 0 0 0 0 0 0 0 0 0 0 0 0 0 0 0 0 0 0 0 0 0 0 0 0 0 0 0 0 0 0 0 0 0 0 0 0 0 0 0 0 0 0 0 0 0 0 0 0 0 0 0 0 0 0 0 0 0 0 0 0 0 0 0 0 0 0 0 0 0 0 0 0 0 0 0 0 0 0 0 0 0 0 0 0 0 0 0 0 0 0 0 0 0 0 0 0 0 0 0 0 0 0 0 0 0 0 0 0 0 0 0 0 0 0 0 0 0 0 0 0 0 0 0 0 0 0 0 0 0 0 0 0 0 0 0 0 0 0 0 0 0 0 0 0 0 0 0 0 0 0 0 0 0 0 0 0 0 0 0 0 0 0 0 0 0 0 0 0 0 0 0 0 0 0 0 0 0 0 0 0 0 0 0 0 0 0 0 0 0 0 0 0 0 0 0 0 0 0 0 0 0 0 0 0 0 0 0 0 0 0 0 0 0 0 0 0 0 0 0 0 0 0 0 0 0 0 0 0 0 0 0 0 0 0 0 0 0 0 0 0 0 0 0 0 0 0 0 0 0 0 0 0 0 0 0 0 0 0 0 0 0 0 0 0 0 0 0 0 0 0 0 0 0 0 0 0 0 0 0 0 0 0 0 0 0 0 0 0 0 0 0 0 0 0 0 0 0 0 0 0 0 0 0 0 0 0 0 0 0 0 0 0 0 0 0 0 0 0 0 0 0 0 0 0 0 0 0 0 0 0 0 0 0 0 0 0 0 0 0 0 0 0 0 0 0 0 0 0 0 0 0 0 0 0 0 0 0 0 0 0 0 0 0 0 0 0 0 0 0 0 0 0 0 0 0 0 0 0 0 0 0 0 0 0 0 0 0 0 0 0 0 0 0 0 0 0 0 0 0 0 0 0 0 0 0 0 0 0 0 0 0 0 0 0 0 0 0 0 0 0 0 0 0 0 0 0 0 0 0 0 0 0 0 0 0 0 0 0 0 0 0 0 0 0 0 0 0 0 0 0 0 0 0 0 0 0 0 0 0 0 0 0 0 0 0 0 0 0 0 0 0 0 0 0 0 0 0 0 0 0 0 0 0 0 0 0 0 0 0 0 0 0 0 0 0 0 0 0 0 0 0 0 0 0 0 0 0 0 0 0 0 0 0 0 0 0 0 0 0 0 0 0 0 0 0 0 0 0 0 0 0 0 0 0 0 0 0 0 0 0 0 0 0 0 0 0 0 0 0 0 0 0 0 0 0 0 0 0 0 0 0 0 0 0 0 0 0 0 0 0 0 0 0 0 0 0 0 0 0 0 0 0 0 0 0 0 0 0 0 0 0 0 0 0 0 0 0 0 0 0 0 0 0 0 0 0 0 0 0 0 0 0 0 0 0 0 0 0 0 0 0 0 0 0 0 0 0 0 0 0 0 0 0 0 0 0 0 0 0 0 0 0 0 0 0 0 0 0 0 0 0 0 0 0 0 0 0 0 0 0 0 0 0 0 0 0 0 0 0 0 0 0 0 0 0 0 0 0 0 0 0 0 0 0 0 0 0 0 0 0 0 0 0 0 0 0 0 0 0 0 0 0 0 0 0 0 0 0 0 0 0 0 0 0 0 0 0 0 0 0 0 0 0 0 0 0 0 0 0 0 0 0 0 0 0 0 0 0 0 0 0 0 0 0 0 0 0 0 0 0 0 0 0 0 0 0 0 0 0 0 0 0 0 0 0 0 0 0 0 0 0 0 0 0 0 0 0 0 0 0 0 0 0 0 0 0 0 0 0 0 0 0 0 0 0 0 0 0 0 0 0 0 0 0 0 0 0 0 0 0 0 0 0 0 0 0 0 0 0 0 0 0 0 0 0 0 0 0 0 0 0 0 0 0 0 0 0 0 0 0 0 0 0 0 0 0 0 0 0 0 0 0 0 0 0 0 0 0 0 0 0 0 0 0 0 0 0 0 0 0 0 0 0 0 0 0 0 0 0 0 0 0 0 0 0 0 0 0 0 0 0 0 0 0 0 0 0 0 0 0 0 0 0 0 0 0 0 0 0 0 0 0 0 0 0 0 0 0 0 0 0 0 0 0 0 0 0 0 0 0 0 0 0 0 0 0 0 0 0 0 0 0 0 0 0 0 0 0 0 0 0 0 0 0 0 0 0 0 0 0 0 0 0 0 0 0 0 0 0 0 0 0 0 0 0 0 0 0 0 0 0 0 0 0 0 0 0 0 0 0 0 0 0 0 0 0 0 0 0 0 0 0 0 0 0 0 0 0 0 0 0 0 0 0 0 0 0 0 0 0 0 0 0 0 0 0 0 0 0 0 0 0 0 0 0 0 0 0 0 0 0 0 0 0 0 0 0 0 0 0 0 0 0 0 0 0 0 0 0 0 0 0 0 0 0 0 0 0 0 0 0 0 0 0 0 0 0 0 0 0 0 0 0 0 0 0 0 0 0 0 0 0 0 0 0 0 0 0 0 0 0 0 0 0 0 0 0 0 0 0 0 0 0 0 0 0 0 0 0 0 0 0 0 0 0 0 0 0 0 0 0 0 0 0 0 0 0 0 0 0 0 0 0 0 0 0 0 0 0 0 0 0 0 0 0 0 0 0 0 0 0 0 0 0 0 0 0 0 0 0 0 0 0 0 0 0 0 0 0 0 0 0 0 0 0 0 0 0 0 0 0 0 0 0 0 0 0 0 0 0 0 0 0 0 0 0 0 0 0 0 0 0 0 0 0 0 0 0 0 0 0 0 0 0 0 0 0 0 0 0 0 0 0 0 0 0 0 0 0 0 0 0 0 0 0 0 0 0 0 0 0 0 0 0 0 0 0 0 0 0 0 0 0 0 0 0 0 0 0 0 0 0 0 0 0 0 0 0 0 0 0 0 0 0 0 0 0 0 0 0 0 0 0 0 0 0 0 0 0 0 0 0 0 0 0 0 0 0 0 0 0 0 0 0 0 0 0 0 0 0 0 0 0 0 0 0 0 0 0 0 0 0 0 0 0 0 0 0 0 0 0 0 0 0 0 0 0 0 0 0 0 0 0 0 0 0 0 0 0 0 0 0 0 0 0 0 0 0 0 0 0 0 0 0 0 0 0 0 0 0 0 0 0 0 0 0 0 0 0 0 0 0 0 0 0 0 0 0 0 0 0 0 0 0 0 0 0 0 0 0 0 0 0 0 0 0 0 0 0 0 0 0 0 0 0 0 0 0 0 0 0 0 0 0 0 0 0 0 0 0 0 0 0 0 0 0 0 0 0 0 0 0 0 0 0 0 0 0 0 0 0 0 0 0 0 0 0 0 0 0 0 0 0 0 0 0 0 0 0 0 0 0 0 0 0 0 0 0 0 0 0 0 0 0 0 0 0 0 0 0 0 0 0 0 0 0 0 0 0 0 0 0 0 0 0 0 0 0 0 0 0 0 0 0 0 0 0 0 0 0 0 0 0 0 0 0 0 0 0 0 0 0 0 0 0 0 0 0 0 0 0 0 0 0 0 0 0 0 0 0 0 0 0 0 0 0 0 0 0 0 0 0 0 0 0 0 0 0 0 0 0 0 0 0 0 0 0 0 0 0 0 0 0 0 0 0 0 0 0 0 0 0 0 0 0 0 0 0 0 0 0 0 0 0 0 0 0 0 0 0 0 0 0 0 0 0 0 0 0 0 0 0 0 0 0 0 0 0 0 0 0 0 0 0 0 0 0 0 0 0 0 0 0 0 0 0 0 0 0 0 0 0 0 0 0 0 0 0 0 0 0 0 0 0 0 0 0 0 0 0 0 0 0 0 0 0 0 0 0 0 0 0 0 0 0 0 0 0 0 0 0 0 0 0 0 0 0 0 0 0 0 0 0 0 0 0 0 0 0 0 0 0 0 0 0 0 0 0 0 0 0 0 0 0 0 0 0 0 0 0 0 0 0 0 0 0 0 0 0 0 0 0 0 0 0 0 0 0 0 0 0 0 0 0 0 0 0 0 0 0 0 0 0 0 0 0 0 0 0 0 0 0 0 0 0 0 0 0 0 0 0 0 0 0 0 0 0 0 0 0 0 0 0 0 0 0 0 0 0 0 0 0 0 0 0 0 0 0 0 0 0 0 0 0 0 0 0 0 0 0 0 0 0 0 0 0 0 0 0 0 0 0 0 0 0 0 0 0 0 0 0 0 0 0 0 0 0 0 0 0 0 0 0 0 0 0 0 0 0 0 0 0 0 0 0 0 0 0 0 0 0 0 0 0 0 0 0 0 0 0 0 0 0 0 0 0 0 0 0 0 0 0 0 0 0 0 0 0 0 0 0 0 0 0 0 0 0 0 0 0 0 0 0 0 0 0 0 0 0 0 0 0 0 0 0 0 0 0 0 0 0 0 0 0 0 0 0 0 0 0 0 0 0 0 0 0 0 0 0 0 0 0 0 0 0 0 0 0 0 0 0 0 0 0 0 0 0 0 0 0 0 0 0 0 0 0 0 0 0 0 0 0 0 0 0 0 0 0 0 0 0 0 0 0 0 0 0 0 0 0 0 0 0 0 0 0 0 0 0 0 0 0 0 0 0 0 0 0 0 0 0 0 0 0 0 0 0 0 0 0 0 0 0 0 0 0 0 0 0 0 0 0 0 0 0 0 0 0 0 0 0 0 0 0 0 0 0 0 0 0 0 0 0 0 0 0 0 0 0 0 0 0 0 0 0 0 0 0 0 0 0 0 0 0 0 0 0 0 0 0 0 0 0 0 0 0 0 0 0 0 0 0 0 0 0 0 0 0 0 0 0 0 0 0 0 0 0 0 0 0 0 0 0 0 0 0 0 0 0 0 0 0 0 0 0 0 0 0 0 0 0 0 0 0 0 0 0 0 0 0 0 0 0 0 0 0 0 0 0 0 0 0 0 0 0 0 0 0 0 0 0 0 0 0 0 0 0 0 0 0 0 0 0 0 0 0 0 0 0 0 0 0 0 0 0 0 0 0 0 0 0 0 0 0 0 0 0 0 0 0 0 0 0 0 0 0 0 0 0 0 0 0 0 0 0 0 0 0 0 0 0 0 0 0 0 0 0 0 0 0 0 0 0 0 0 0 0 0 0 0 0 0 0 0 0 0 0 0 0 0 0 0 0 0 0 0 0 0 0 0 0 0 0 0 0 0 0 0 0 0 0 0 0 0 0 0 0 0 0 0 0 0 0 0 0 0 0 0 0 0 0 0 0 0 0 0 0 0 0 0 0 0 0 0 0 0 0 0 0 0 0 0 0 0 0 0 0 0 0 0 0 0 0 0 0 0 0 0 0 0 0 0 0 0 0 0 0 0 0 0 0 0 0 0 0 0 0 0 0 0 0 0 0 0 0 0 0 0 0 0 0 0 0 0 0 0 0 0 0 0 0 0 0 0 0 0 0 0 0 0 0 0 0 0 0 0 0 0 0 0 0 0 0 0 0 0 0 0 0 0 0 0 0 0 0 0 0 0 0 0 0 0 0 0 0 0 0 0 0 0 0 0 0 0 0 0 0 0 0 0 0 0 0 0 0 0 0 0 0 0 0 0 0 0 0 0 0 0 0 0 0 0 0 0 0 0 0 0 0 0 0 0 0 0 0 0 0 0 0 0 0 0 0 0 0 0 0 0 0 0 0 0 0 0 0 0 0 0 0 0 0 0 0 0 0 0 0 0 0 0 0 0 0 0 0 0 0 0 0 0 0 0 0 0 0 0 0 0 0 0 0 0 0 0 0 0 0 0 0 0 0 0 0 0 0 0 0 0 0 0 0 0 0 0 0 0 0 0 0 0 0 0 0 0 0 0 0 0 0 0 0 0 0 0 0 0 0 0 0 0 0 0 0 0 0 0 0 0 0 0 0 0 0 0 0 0 0 0 0 0 0 0 0 0 0 0 0 0 0 0 0 0 0 0 0 0 0 0 0 0 0 0 0 0 0 0 0 0 0 0 0 0 0 0 0 0 0 0 0 0 0 0 0 0 0 0 0 0 0 0 0 0 0 0 0 0 0 0 0 0 0 0 0 0 0 0 0 0 0 0 0 0 0 0 0 0 0 0 0 0 0 0 0 0 0 0 0 0 0 0 0 0 0 0 0 0 0 0 0 0 0 0 0 0 0 0 0 0 0 0 0 0 0 0 0 0 0 0 0 0 0 0 0 0 0 0 0 0 0 0 0 0 0 0 0 0 0 0 0 0 0 0 0 0 0 0 0 0 0 0 0 0 0 0 0 0 0 0 0 0 0 0 0 0 0 0 0 0 0 0 0 0 0 0 0 0 0 0 0 0 0 0 0 0 0 0 0 0 0 0 0 0 0 0 0 0 0 0 0 0 0 0 0 0 0 0 0 0 0 0 0 0 0 0 0 0 0 0 0 0 0 0 0 0 0 0 0 0 0 0 0 0 0 0 0 0 0 0 0 0 0 0 0 0 0 0 0 0 0 0 0 0 0 0 0 0 0 0 0 0 0 0 0 0 0 0 0 0 0 0 0 0 0 0 0 0 0 0 0 0 0 0 0 0 0 0 0 0 0 0 0 0 0 0 0 0 0 0 0 0 0 0 0 0 0 0 0 0 0 0 0 0 0 0 0 0 0 0 0 0 0 0 0 0 0 0 0 0 0 0 0 0 0 0 0 0 0 0 0 0 0 0 0 0 0 0 0 0 0 0 0 0 0 0 0 0 0 0 0 0 0 0 0 0 0 0 0 0 0 0 0 0 0 0 0 0 0 0 0 0 0 0 0 0 0 0 0 0 0 0 0 0 0 0 0 0 0 0 0 0 0 0 0 0 0 0 0 0 0 0 0 0 0 0 0 0 0 0 0 0 0 0 0 0 0 0 0 0 0 0 0 0 0 0 0 0 0 0 0 0 0 0 0 0 0 0 0 0 0 0 0 0 0 0 0 0 0 0 0 0 0 0 0 0 0 0 0 0 0 0 0 0 0 0 0 0 0 0 0 0 0 0 0 0 0 0 0 0 0 0 0 0 0 0 0 0 0 0 0 0 0 0 0 0 0 0 0 0 0 0 0 0 0 0 0 0 0 0 0 0 0 0 0 0 0 0 0 0 0 0 0 0 0 0 0 0 0 0 0 0 0 0 0 0 0 0 0 0 0 0 0 0 0 0 0 0 0 0 0 0 0 0 0 0 0 0 0 0 0 0 0 0 0 0 0 0 0 0 0 0 0 0 0 0 0 0 0 0 0 0 0 0 0 0 0 0 0 0 0 0 0 0 0 0 0 0 0 0 0 0 0 0 0 0 0 0 0 0 0 0 0 0 0 0 0 0 0 0 0 0 0 0 0 0 0 0 0 0 0 0 0 0 0 0 0 0 0 0 0 0 0 0 0 0 0 0 0 0 0 0 0 0 0 0 0 0 0 0 0 0 0 0 0 0 0 0 0 0 0 0 0 0 0 0 0 0 0 0 0 0 0 0 0 0 0 0 0 0 0 0 0 0 0 0 0 0 0 0 0 0 0 0 0 0 0 0 0 0 0 0 0 0 0 0 0 0 0 0 0 0 0 0 0 0 0 0 0 0 0 0 0 0 0 0 0 0 0 0 0 0 0 0 0 0 0 0 0 0 0 0 0 0 0 0 0 0 0 0 0 0 0 0 0 0 0 0 0 0 0 0 0 0 0 0 0 0 0 0 0 0 0 0 0 0 0 0 0 0 0 0 0 0 0 0 0 0 0 0 0 0 0 0 0 0 0 0 0 0 0 0 0 0 0 0 0 0 0 0 0 0 0 0 0 0 0 0 0 0 0 0 0 0 0 0 0 0 0 0 0 0 0 0 0 0 0 0 0 0 0 0 0 0 0 0 0 0 0 0 0 0 0 0 0 0 0 0 0 0 0 0 0 0 0 0 0 0 0 0 0 0 0 0 0 0 0 0 0 0 0 0 0 0 0 0 0 0 0 0 0 0 0 0 0 0 0 0 0 0 0 0 0 0 0 0 0 0 0 0 0 0 0 0 0 0 0 0 0 0 0 0 0 0 0 0 0 0 0 0 0 0 0 0 0 0 0 0 0 0 0 0 0 0 0 0 0 0 0 0 0 0 0 0 0 0 0 0 0 0 0 0 0 0 0 0 0 0 0 0 0 0 0 0 0 0 0 0 0 0 0 0 0 0 0 0 0 0 0 0 0 0 0 0 0 0 0 0 0 0 0 0 0 0 0 0 0 0 0 0 0 0 0 0 0 0 0 0 0 0 0 0 0 0 0 0 0 0 0 0 0 0 0 0 0 0 0 0 0 0 0 0 0 0 0 0 0 0 0 0 0 0 0 0 0 0 0 0 0 0 0 0 0 0 0 0 0 0 0 0 0 0 0 0 0 0 0 0 0 0 0 0 0 0 0 0 0 0 0 0 0 0 0 0 0 0 0 0 0 0 0 0 0 0 0 0 0 0 0 0 0 0 0 0 0 0 0 0 0 0 0 0 0 0 0 0 0 0 0 0 0 0 0 0 0 0 0 0 0 0 0 0 0 0 0 0 0 0 0 0 0 0 0 0 0 0 0 0 0 0 0 0 0 0 0 0 0 0 0 0 0 0 0 0 0 0 0 0 0 0 0 0 0 0 0 0 0 0 0 0 0 0 0 0 0 0 0 0 0 0 0 0 0 0 0 0 0 0 0 0 0 0 0 0 0 0 0 0 0 0 0 0 0 0 0 0 0 0 0 0 0 0 0 0 0 0 0 0 0 0 0 0 0 0 0 0 0 0 0 0 0 0 0 0 0 0 0 0 0 0 0 0 0 0 0 0 0 0 0 0 0 0 0 0 0 0 0 0 0 0 0 0 0 0 0 0 0 0 0 0 0 0 0 0 0 0 0 0 0 0 0 0 0 0 0 0 0 0 0 0 0 0 0 0 0 0 0 0 0 0 0 0 0 0 0 0 0 0 0 0 0 0 0 0 0 0 0 0 0 0 0 0 0 0 0 0 0 0 0 0 0 0 0 0 0 0 0 0 0 0 0 0 0 0 0 0 0 0 0 0 0 0 0 0 0 0 0 0 0 0 0 0 0 0 0 0 0 0 0 0 0 0 0 0 0 0 0 0 0 0 0 0 0 0 0 0 0 0 0 0 0 0 0 0 0 0 0 0 0 0 0 0 0 0 0 0 0 0 0 0 0 0 0 0 0 0 0 0 0 0 0 0 0 0 0 0 0 0 0 0 0 0 0 0 0 0 0 0 0 0 0 0 0 0 0 0 0 0 0 0 0 0 0 0 0 0 0 0 0 0 0 0 0 0 0 0 0 0 0 0 0 0 0 0 0 0 0 0 0 0 0 0 0 0 0 0 0 0 0 0 0 0 0 0 0 0 0 0 0 0 0 0 0 0 0 0 0 0 0 0 0 0 0 0 0 0 0 0 0 0 0 0 0 0 0 0 0 0 0 0 0 0 0 0 0 0 0 0 0 0 0 0 0 0 0 0 0 0 0 0 0 0 0 0 0 0 0 0 0 0 0 0 0 0 0 0 0 0 0 0 0 0 0 0 0 0 0 0 0 0 0 0 0 0 0 0 0 0 0 0 0 0 0 0 0 0 0 0 0 0 0 0 0 0 0 0 0 0 0 0 0 0 0 0 0 0 0 0 0 0 0 0 0 0 0 0 0 0 0 0 0 0 0 0 0 0 0 0 0 0 0 0 0 0 0 0 0 0 0 0 0 0 0 0 0 0 0 0 0 0 0 0 0 0 0 0 0 0 0 0 0 0 0 0 0 0 0 0 0 0 0 0 0 0 0 0 0 0 0 0 0 0 0 0 0 0 0 0 0 0 0 0 0 0 0 0 0 0 0 0 0 0 0 0 0 0 0 0 0 0 0 0 0 0 0 0 0 0 0 0 0 0 0 0 0 0 0 0 0 0 0 0 0 0 0 0 0 0 0 0 0 0 0 0 0 0 0 0 0 0 0 0 0 0 0 0 0 0 0 0 0 0 0 0 0 0 0 0 0 0 0 0 0 0 0 0 0 0 0 0 0 0 0 0 0 0 0 0 0 0 0 0 0 0 0 0 0 0 0 0 0 0 0 0 0 0 0 0 0 0 0 0 0 0 0 0 0 0 0 0 0 0 0 0 0 0 0 0 0 0 0 0 0 0 0 0 0 0 0 0 0 0 0 0 0 0 0 0 0 0 0 0 0 0 0 0 0 0 0 0 0 0 0 0 0 0 0 0 0 0 0 0 0 0 0 0 0 0 0 0 0 0 0 0 0 0 0 0 0 0 0 0 0 0 0 0 0 0 0 0 0 0 0 0 0 0 0 0 0 0 0 0 0 0 0 0 0 0 0 0 0 0 0 0 0 0 0 0 0 0 0 0 0 0 0 0 0 0 0 0 0 0 0 0 0 0 0 0 0 0 0 0 0 0 0 0 0 0 0 0 0 0 0 0 0 0 0 0 0 0 0 0 0 0 0 0 0 0 0 0 0 0 0 0 0 0 0 0 0 0 0 0 0 0 0 0 0 0 0 0 0 0 0 0 0 0 0 0 0 0 0 0 0 0 0 0 0 0 0 0 0 0 0 0 0 0 0 0 0 0 0 0 0 0 0 0 0 0 0 0 0 0 0 0 0 0 0 0 0 0 0 0 0 0 0 0 0 0 0 0 0 0 0 0 0 0 0 0 0 0 0 0 0 0 0 0 0 0 0 0 0 0 0 0 0 0 0 0 0 0 0 0 0 0 0 0 0 0 0 0 0 0 0 0 0 0 0 0 0 0 0 0 0 0 0 0 0 0 0 0 0 0 0 0 0 0 0 0 0 0 0 0 0 0 0 0 0 0 0 0 0 0 0 0 0 0 0 0 0 0 0 0 0 0 0 0 0 0 0 0 0 0 0 0 0 0 0 0 0 0 0 0 0 0 0 0 0 0 0 0 0 0 0 0 0 0 0 0 0 0 0 0 0 0 0 0 0 0 0 0 0 0 0 0 0 0 0 0 0 0 0 0 0 0 0 0 0 0 0 0 0 0 0 0 0 0 0 0 0 0 0 0 0 0 0 0 0 0 0 0 0 0 0 0 0 0 0 0 0 0 0 0 0 0 0 0 0 0 0 0 0 0 0 0 0 0 0 0 0 0 0 0 0 0 0 0 0 0 0 0 0 0 0 0 0 0 0 0 0 0 0 0 0 0 0 0 0 0 0 0 0 0 0 0 0 0 0 0 0 0 0 0 0 0 0 0 0 0 0 0 0 0 0 0 0 0 0 0 0 0 0 0 0 0 0 0 0 0 0 0 0 0 0 0 0 0 0 0 0 0 0 0 0 0 0 0 0 0 0 0 0 0 0 0 0 0 0 0 0 0 0 0 0 0 0 0 0 0 0 0 0 0 0 0 0 0 0 0 0 0 0 0 0 0 0 0 0 0 0 0 0 0 0 0 0 0 0 0 0 0 0 0 0 0 0 0 0 0 0 0 0 0 0 0 0 0 0 0 0 0 0 0 0 0 0 0 0 0 0 0 0 0 0 0 0 0 0 0 0 0 0 0 0 0 0 0 0 0 0 0 0 0 0 0 0 0 0 0 0 0 0 0 0 0 0 0 0 0 0 0 0 0 0 0 0 0 0 0 0 0 0 0 0 0 0 0 0 0 0 0 0 0 0 0 0 0 0 0 0 0 0 0 0 0 0 0 0 0 0 0 0 0 0 0 0 0 0 0 0 0 0 0 0 0 0 0 0 0 0 0 0 0 0 0 0 0 0 0 0 0 0 0 0 0 0 0 0 0 0 0 0 0 0 0 0 0 0 0 0 0 0 0 0 0 0 0 0 0 0 0 0 0 0 0 0 0 0 0 0 0 0 0 0 0 0 0 0 0 0 0 0 0 0 0 0 0 0 0 0 0 0 0 0 0 0 0 0 0 0 0 0 0 0 0 0 0 0 0 0 0 0 0 0 0 0 0 0 0 0 0 0 0 0 0 0 0 0 0 0 0 0 0 0 0 0 0 0 0 0 0 0 0 0 0 0 0 0 0 0 0 0 0 0 0 0 0 0 0 0 0 0 0 0 0 0 0 0 0 0 0 0 0 0 0 0 0 0 0 0 0 0 0 0 0 0 0 0 0 0 0 0 0 0 0 0 0 0 0 0 0 0 0 0 0 0 0 0 0 0 0 0 0 0 0 0 0 0 0 0 0 0 0 0 0 0 0 0 0 0 0 0 0 0 0 0 0 0 0 0 0 0 0 0 0 0 0 0 0 0 0 0 0 0 0 0 0 0 0 0 0 0 0 0 0 0 0 0 0 0 0 0 0 0 0 0 0 0 0 0 0 0 0 0 0 0 0 0 0 0 0 0 0 0 0 0 0 0 0 0 0 0 0 0 0 0 0 0 0 0 0 0 0 0 0 0 0 0 0 0 0 0 0 0 0 0 0 0 0 0 0 0 0 0 0 0 0 0 0 0 0 0 0 0 0 0 0 0 0 0 0 0 0 0 0 0 0 0 0 0 0 0 0 0 0 0 0 0 0 0 0 0 0 0 0 0 0 0 0 0 0 0 0 0 0 0 0 0 0 0 0 0 0 0 0 0 0 0 0 0 0 0 0 0 0 0 0 0 0 0 0 0 0 0 0 0 0 0 0 0 0 0 0 0 0 0 0 0 0 0 0 0 0 0 0 0 0 0 0 0 0 0 0 0 0 0 0 0 0 0 0 0 0 0 0 0 0 0 0 0 0 0 0 0 0 0 0 0 0 0 0 0 0 0 0 0 0 0 0 0 0 0 0 0 0 0 0 0 0 0 0 0 0 0 0 0 0 0 0 0 0 0 0 0 0 0 0 0 0 0 0 0 0 0 0 0 0 0 0 0 0 0 0 0 0 0 0 0 0 0 0 0 0 0 0 0 0 0 0 0 0 0 0 0 0 0 0 0 0 0 0 0 0 0 0 0 0 0 0 0 0 0 0 0 0 0 0 0 0 0 0 0 0 0 0 0 0 0 0 0 0 0 0 0 0 0 0 0 0 0 0 0 0 0 0 0 0 0 0 0 0 0 0 0 0 0 0 0 0 0 0 0 0 0 0 0 0 0 0 0 0 0 0 0 0 0 0 0 0 0 0 0 0 0 0 0 0 0 0 0 0 0 0 0 0 0 0 0 0 0 0 0 0 0 0 0 0 0 0 0 0 0 0 0 0 0 0 0 0 0 0 0 0 0 0 0 0 0 0 0 0 0 0 0 0 0 0 0 0 0 0 0 0 0 0 0 0 0 0 0 0 0 0 0 0 0 0 0 0 0 0 0 0 0 0 0 0 0 0 0 0 0 0 0 0 0 0 0 0 0 0 0 0 0 0 0 0 0 0 0 0 0 0 0 0 0 0 0 0 0 0 0 0 0 0 0 0 0 0 0 0 0 0 0 0 0 0 0 0 0 0 0 0 0 0 0 0 0 0 0 0 0 0 0 0 0 0 0 0 0 0 0 0 0 0 0 0 0 0 0 0 0 0 0 0 0 0 0 0 0 0 0 0 0 0 0 0 0 0 0 0 0 0 0 0 0 0 0 0 0 0 0 0 0 0 0 0 0 0 0 0 0 0 0 0 0 0 0 0 0 0 0 0 0 0 0 0 0 0 0 0 0 0 0 0 0 0 0 0 0 0 0 0 0 0 0 0 0 0 0 0 0 0 0 0 0 0 0 0 0 0 0 0 0 0 0 0 0 0 0 0 0 0 0 0 0 0 0 0 0 0 0 0 0 0 0 0 0 0 0 0 0 0 0 0 0 0 0 0 0 0 0 0 0 0 0 0 0 0 0 0 0 0 0 0 0 0 0 0 0 0 0 0 0 0 0 0 0 0 0 0 0 0 0 0 0 0 0 0 0 0 0 0 0 0 0 0 0 0 0 0 0 0 0 0 0 0 0 0 0 0 0 0 0 0 0 0 0 0 0 0 0 0 0 0 0 0 0 0 0 0 0 0 0 0 0 0 0 0 0 0 0 0 0 0 0 0 0 0 0 0 0 0 0 0 0 0 0 0 0 0 0 0 0 0 0 0 0 0 0 0 0 0 0 0 0 0 0 0 0 0 0 0 0 0 0 0 0 0 0 0 0 0 0 0 0 0 0 0 0 0 0 0 0 0 0 0 0 0 0 0 0 0 0 0 0 0 0 0 0 0 0 0 0 0 0 0 0 0 0 0 0 0 0 0 0 0 0 0 0 0 0 0 0 0 0 0 0 0 0 0 0 0 0 0 0 0 0 0 0 0 0 0 0 0 0 0 0 0 0 0 0 0 0 0 0 0 0 0 0 0 0 0 0 0 0 0 0 0 0 0 0 0 0 0 0 0 0 0 0 0 0 0 0 0 0 0 0 0 0 0 0 0 0 0 0 0 0 0 0 0 0 0 0 0 0 0 0 0 0 0 0 0 0 0 0 0 0 0 0 0 0 0 0 0 0 0 0 0 0 0 0 0 0 0 0 0 0 0 0 0 0 0 0 0 0 0 0 0 0 0 0 0 0 0 0 0 0 0 0 0 0 0 0 0 0 0 0 0 0 0 0 0 0 0 0 0 0 0 0 0 0 0 0 0 0 0 0 0 0 0 0 0 0 0 0 0 0 0 0 0 0 0 0 0 0 0 0 0 0 0 0 0 0 0 0 0 0 0 0 0 0 0 0 0 0 0 0 0 0 0 0 0 0 0 0 0 0 0 0 0 0 0 0 0 0 0 0 0 0 0 0 0 0 0 0 0 0 0 0 0 0 0 0 0 0 0 0 0 0 0 0 0 0 0 0 0 0 0 0 0 0 0 0 0 0 0 0 0 0 0 0 0 0 0 0 0 0 0 0 0 0 0 0 0 0 0 0 0 0 0 0 0 0 0 0 0 0 0 0 0 0 0 0 0 0 0 0 0 0 0 0 0 0 0 0 0 0 0 0 0 0 0 0 0 0 0 0 0 0 0 0 0 0 0 0 0 0 0 0 0 0 0 0 0 0 0 0 0 0 0 0 0 0 0 0 0 0 0 0 0 0 0 0 0 0 0 0 0 0 0 0 0 0 0 0 0 0 0 0 0 0 0 0 0 0 0 0 0 0 0 0 0 0 0 0 0 0 0 0 0 0 0 0 0 0 0 0 0 0 0 0 0 0 0 0 0 0 0 0 0 0 0 0 0 0 0 0 0 0 0 0 0 0 0 0 0 0 0 0 0 0 0 0 0 0 0 0 0 0 0 0 0 0 0 0 0 0 0 0 0 0 0 0 0 0 0 0 0 0 0 0 0 0 0 0 0 0 0 0 0 0 0 0 0 0 0 0 0 0 0 0 0 0 0 0 0 0 0 0 0 0 0 0 0 0 0 0 0 0 0 0 0 0 0 0 0 0 0 0 0 0 0 0 0 0 0 0 0 0 0 0 0 0 0 0 0 0 0 0 0 0 0 0 0 0 0 0 0 0 0 0 0 0 0 0 0 0 0 0 0 0 0 0 0 0 0 0 0 0 0 0 0 0 0 0 0 0 0 0 0 0 0 0 0 0 0 0 0 0 0 0 0 0 0 0 0 0 0 0 0 0 0 0 0 0 0 0 0 0 0 0 0 0 0 0 0 0 0 0 0 0 0 0 0 0 0 0 0 0 0 0 0 0 0 0 0 0 0 0 0 0 0 0 0 0 0 0 0 0 0 0 0 0 0 0 0 0 0 0 0 0 0 0 0 0 0 0 0 0 0 0 0 0 0 0 0 0 0 0 0 0 0 0 0 0 0 0 0 0 0 0 0 0 0 0 0 0 0 0 0 0 0 0 0 0 0 0 0 0 0 0 0 0 0 0 0 0 0 0 0 0 0 0 0 0 0 0 0 0 0 0 0 0 0 0 0 0 0 0 0 0 0 0 0 0 0 0 0 0 0 0 0 0 0 0 0 0 0 0 0 0 0 0 0 0 0 0 0 0 0 0 0 0 0 0 0 0 0 0 0 0 0 0 0 0 0 0 0 0 0 0 0 0 0 0 0 0 0 0 0 0 0 0 0 0 0 0 0 0 0 0 0 0 0 0 0 0 0 0 0 0 0 0 0 0 0 0 0 0 0 0 0 0 0 0 0 0 0 0 0 0 0 0 0 0 0 0 0 0 0 0 0 0 0 0 0 0 0 0 0 0 0 0 0 0 0 0 0 0 0 0 0 0 0 0 0 0 0 0 0 0 0 0 0 0 0 0 0 0 0 0 0 0 0 0 0 0 0 0 0 0 0 0 0 0 0 0 0 0 0 0 0 0 0 0 0 0 0 0 0 0 0 0 0 0 0 0 0 0 0 0 0 0 0 0 0 0 0 0 0 0 0 0 0 0 0 0 0 0 0 0 0 0 0 0 0 0 0 0 0 0 0 0 0 0 0 0 0 0 0 0 0 0 0 0 0 0 0 0 0 0 0 0 0 0 0 0 0 0 0 0 0 0 0 0 0 0 0 0 0 0 0 0 0 0 0 0 0 0 0 0 0 0 0 0 0 0 0 0 0 0 0 0 0 0 0 0 0 0 0 0 0 0 0 0 0 0 0 0 0 0 0 0 0 0 0 0 0 0 0 0 0 0 0 0 0 0 0 0 0 0 0 0 0 0 0 0 0 0 0 0 0 0 0 0 0 0 0 0 0 0 0 0 0 0 0 0 0 0 0 0 0 0 0 0 0 0 0 0 0 0 0 0 0 0 0 0 0 0 0 0 0 0 0 0 0 0 0 0 0 0 0 0 0 0 0 0 0 0 0 0 0 0 0 0 0 0 0 0 0 0 0 0 0 0 0 0 0 0 0 0 0 0 0 0 0 0 0 0 0 0 0 0 0 0 0 0 0 0 0 0 0 0 0 0 0 0 0 0 0 0 0 0 0 0 0 0 0 0 0 0 0 0 0 0 0 0 0 0 0 0 0 0 0 0 0 0 0 0 0 0 0 0 0 0 0 0 0 0 0 0 0 0 0 0 0 0 0 0 0 0 0 0 0 0 0 0 0 0 0 0 0 0 0 0 0 0 0 0 0 0 0 0 0 0 0 0 0 0 0 0 0 0 0 0 0 0 0 0 0 0 0 0 0 0 0 0 0 0 0 0 0 0 0 0 0 0 0 0 0 0 0 0 0 0 0 0 0 0 0 0 0 0 0 0 0 0 0 0 0 0 0 0 0 0 0 0 0 0 0 0 0 0 0 0 0 0 0 0 0 0 0 0 0 0 0 0 0 0 0 0 0 0 0 0 0 0 0 0 0 0 0 0 0 0 0 0 0 0 0 0 0 0 0 0 0 0 0 0 0 0 0 0 0 0 0 0 0 0 0 0 0 0 0 0 0 0 0 0 0 0 0 0 0 0 0 0 0 0 0 0 0 0 0 0 0 0 0 0 0 0 0 0 0 0 0 0 0 0 0 0 0 0 0 0 0 0 0 0 0 0 0 0 0 0 0 0 0 0 0 0 0 0 0 0 0 0 0 0 0 0 0 0 0 0 0 0 0 0 0 0 0 0 0 0 0 0 0 0 0 0 0 0 0 0 0 0 0 0 0 0 0 0 0 0 0 0 0 0 0 0 0 0 0 0 0 0 0 0 0 0 0 0 0 0 0 0 0 0 0 0 0 0 0 0 0 0 0 0 0 0 0 0 0 0 0 0 0 0 0 0 0 0 0 0 0 0 0 0 0 0 0 0 0 0 0 0 0 0 0 0 0 0 0 0 0 0 0 0 0 0 0 0 0 0 0 0 0 0 0 0 0 0 0 0 0 0 0 0 0 0 0 0 0 0 0 0 0 0 0 0 0 0 0 0 0 0 0 0 0 0 0 0 0 0 0 0 0 0 0 0 0 0 0 0 0 0 0 0 0 0 0 0 0 0 0 0 0 0 0 0 0 0 0 0 0 0 0 0 0 0 0 0 0 0 0 0 0 0 0 0 0 0 0 0 0 0 0 0 0 0 0 0 0 0 0 0 0 0 0 0 0 0 0 0 0 0 0 0 0 0 0 0 0 0 0 0 0 0 0 0 0 0 0 0 0 0 0 0 0 0 0 0 0 0 0 0 0 0 0 0 0 0 0 0 0 0 0 0 0 0 0 0 0 0 0 0 0 0 0 0 0 0 0 0 0 0 0 0 0 0 0 0 0 0 0 0 0 0 0 0 0 0 0 0 0 0 0 0 0 0 0 0 0 0 0 0 0 0 0 0 0 0 0 0 0 0 0 0 0 0 0 0 0 0 0 0 0 0 0 0 0 0 0 0 0 0 0 0 0 0 0 0 0 0 0 0 0 0 0 0 0 0 0 0 0 0 0 0 0 0 0 0 0 0 0 0 0 0 0 0 0 0 0 0 0 0 0 0 0 0 0 0 0 0 0 0 0 0 0 0 0 0 0 0 0 0 0 0 0 0 0 0 0 0 0 0 0 0 0 0 0 0 0 0 0 0 0 0 0 0 0 0 0 0 0 0 0 0 0 0 0 0 0 0 0 0 0 0 0 0 0 0 0 0 0 0 0 0 0 0 0 0 0 0 0 0 0 0 0 0 0 0 0 0 0 0 0 0 0 0 0 0 0 0 0 0 0 0 0 0 0 0 0 0 0 0 0 0 0 0 0 0 0 0 0 0 0 0 0 0 0 0 0 0 0 0 0 0 0 0 0 0 0 0 0 0 0 0 0 0 0 0 0 0 0 0 0 0 0 0 0 0 0 0 0 0 0 0 0 0 0 0 0 0 0 0 0 0 0 0 0 0 0 0 0 0 0 0 0 0 0 0 0 0 0 0 0 0 0 0 0 0 0 0 0 0 0 0 0 0 0 0 0 0 0 0 0 0 0 0 0 0 0 0 0 0 0 0 0 0 0 0 0 0 0 0 0 0 0 0 0 0 0 0 0 0 0 0 0 0 0 0 0 0 0 0 0 0 0 0 0 0 0 0 0 0 0 0 0 0 0 0 0 0 0 0 0 0 0 0 0 0 0 0 0 0 0 0 0 0 0 0 0 0 0 0 0 0 0 0 0 0 0 0 0 0 0 0 0 0 0 0 0 0 0 0 0 0 0 0 0 0 0 0 0 0 0 0 0 0 0 0 0 0 0 0 0 0 0 0 0 0 0 0 0 0 0 0 0 0 0 0 0 0 0 0 0 0 0 0 0 0 0 0 0 0 0 0 0 0 0 0 0 0 0 0 0 0 0 0 0 0 0 0 0 0 0 0 0 0 0 0 0 0 0 0 0 0 0 0 0 0 0 0 0 0 0 0 0 0 0 0 0 0 0 0 0 0 0 0 0 0 0 0 0 0 0 0 0 0 0 0 0 0 0 0 0 0 0 0 0 0 0 0 0 0 0 0 0 0 0 0 0 0 0 0 0 0 0 0 0 0 0 0 0 0 0 0 0 0 0 0 0 0 0 0 0 0 0 0 0 0 0 0 0 0 0 0 0 0 0 0 0 0 0 0 0 0 0 0 0 0 0 0 0 0 0 0 0 0 0 0 0 0 0 0 0 0 0 0 0 0 0 0 0 0 0 0 0 0 0 0 0 0 0 0 0 0 0 0 0 0 0 0 0 0 0 0 0 0 0 0 0 0 0 0 0 0 0 0 0 0 0 0 0 0 0 0 0 0 0 0 0 0 0 0 0 0 0 0 0 0 0 0 0 0 0 0 0 0 0 0 0 0 0 0 0 0 0 0 0 0 0 0 0 0 0 0 0 0 0 0 0 0 0 0 0 0 0 0 0 0 0 0 0 0 0 0 0 0 0 0 0 0 0 0 0 0 0 0 0 0 0 0 0 0 0 0 0 0 0 0 0 0 0 0 0 0 0 0 0 0 0 0 0 0 0 0 0 0 0 0 0 0 0 0 0 0 0 0 0 0 0 0 0 0 0 0 0 0 0 0 0 0 0 0 0 0 0 0 0 0 0 0 0 0 0 0 0 0 0 0 0 0 0 0 0 0 0 0 0 0 0 0 0 0 0 0 0 0 0 0 0 0 0 0 0 0 0 0 0 0 0 0 0 0 0 0 0 0 0 0 0 0 0 0 0 0 0 0 0 0 0 0 0 0 0 0 0 0 0 0 0 0 0 0 0 0 0 0 0 0 0 0 0 0 0 0 0 0 0 0 0 0 0 0 0 0 0 0 0 0 0 0 0 0 0 0 0 0 0 0 0 0 0 0 0 0 0 0 0 0 0 0 0 0 0 0 0 0 0 0 0 0 0 0 0 0 0 0 0 0 0 0 0 0 0 0 0 0 0 0 0 0 0 0 0 0 0 0 0 0 0 0 0 0 0 0 0 0 0 0 0 0 0 0 0 0 0 0 0 0 0 0 0 0 0 0 0 0 0 0 0 0 0 0 0 0 0 0 0 0 0 0 0 0 0 0 0 0 0 0 0 0 0 0 0 0 0 0 0 0 0 0 0 0 0 0 0 0 0 0 0 0 0 0 0 0 0 0 0 0 0 0 0 0 0 0 0 0 0 0 0 0 0 0 0 0 0 0 0 0 0 0 0 0 0 0 0 0 0 0 0 0 0 0 0 0 0 0 0 0 0 0 0 0 0 0 0 0 0 0 0 0 0 0 0 0 0 0 0 0 0 0 0 0 0 0 0 0 0 0 0 0 0 0 0 0 0 0 0 0 0 0 0 0 0 0 0 0 0 0 0 0 0 0 0 0 0 0 0 0 0 0 0 0 0 0 0 0 0 0 0 0 0 0 0 0 0 0 0 0 0 0 0 0 0 0 0 0 0 0 0 0 0 0 0 0 0 0 0 0 0 0 0 0 0 0 0 0 0 0 0 0 0 0 0 0 0 0 0 0 0 0 0 0 0 0 0 0 0 0 0 0 0 0 0 0 0 0 0 0 0 0 0 0 0 0 0 0 0 0 0 0 0 0 0 0 0 0 0 0 0 0 0 0 0 0 0 0 0 0 0 0 0 0 0 0 0 0 0 0 0 0 0 0 0 0 0 0 0 0 0 0 0 0 0 0 0 0 0 0 0 0 0 0 0 0 0 0 0 0 0 0 0 0 0 0 0 0 0 0 0 0 0 0 0 0 0 0 0 0 0 0 0 0 0 0 0 0 0 0 0 0 0 0 0 0 0 0 0 0 0 0 0 0 0 0 0 0 0 0 0 0 0 0 0 0 0 0 0 0 0 0 0 0 0 0 0 0 0 0 0 0 0 0 0 0 0 0 0 0 0 0 0 0 0 0 0 0 0 0 0 0 0 0 0 0 0 0 0 0 0 0 0 0 0 0 0 0 0 0 0 0 0 0 0 0 0 0 0 0 0 0 0 0 0 0 0 0 0 0 0 0 0 0 0 0 0 0 0 0 0 0 0 0 0 0 0 0 0 0 0 0 0 0 0 0 0 0 0 0 0 0 0 0 0 0 0 0 0 0 0 0 0 0 0 0 0 0 0 0 0 0 0 0 0 0 0 0 0 0 0 0 0 0 0 0 0 0 0 0 0 0 0 0 0 0 0 0 0 0 0 0 0 0 0 0 0 0 0 0 0 0 0 0 0 0 0 0 0 0 0 0 0 0 0 0 0 0 0 0 0 0 0 0 0 0 0 0 0 0 0 0 0 0 0 0 0 0 0 0 0 0 0 0 0 0 0 0 0 0 0 0 0 0 0 0 0 0 0 0 0 0 0 0 0 0 0 0 0 0 0 0 0 0 0 0 0 0 0 0 0 0 0 0 0 0 0 0 0 0 0 0 0 0 0 0 0 0 0 0 0 0 0 0 0 0 0 0 0 0 0 0 0 0 0 0 0 0 0 0 0 0 0 0 0 0 0 0 0 0 0 0 0 0 0 0 0 0 0 0 0 0 0 0 0 0 0 0 0 0 0 0 0 0 0 0 0 0 0 0 0 0 0 0 0 0 0 0 0 0 0 0 0 0 0 0 0 0 0 0 0 0 0 0 0 0 0 0 0 0 0 0 0 0 0 0 0 0 0 0 0 0 0 0 0 0 0 0 0 0 0 0 0 0 0 0 0 0 0 0 0 0 0 0 0 0 0 0 0 0 0 0 0 0 0 0 0 0 0 0 0 0 0 0 0 0 0 0 0 0 0 0 0 0 0 0 0 0 0 0 0 0 0 0 0 0 0 0 0 0 0 0 0 0 0 0 0 0 0 0 0 0 0 0 0 0 0 0 0 0 0 0 0 0 0 0 0 0 0 0 0 0 0 0 0 0 0 0 0 0 0 0 0 0 0 0 0 0 0 0 0 0 0 0 0 0 0 0 0 0 0 0 0 0 0 0 0 0 0 0 0 0 0 0 0 0 0 0 0 0 0 0 0 0 0 0 0 0 0 0 0 0 0 0 0 0 0 0 0 0 0 0 0 0 0 0 0 0 0 0 0 0 0 0 0 0 0 0 0 0 0 0 0 0 0 0 0 0 0 0 0 0 0 0 0 0 0 0 0 0 0 0 0 0 0 0 0 0 0 0 0 0 0 0 0 0 0 0 0 0 0 0 0 0 0 0 0 0 0 0 0 0 0 0 0 0 0 0 0 0 0 0 0 0 0 0 0 0 0 0 0 0 0 0 0 0 0 0 0 0 0 0 0 0 0 0 0 0 0 0 0 0 0 0 0 0 0 0 0 0 0 0 0 0 0 0 0 0 0 0 0 0 0 0 0 0 0 0 0 0 0 0 0 0 0 0 0 0 0 0 0 0 0 0 0 0 0 0 0 0 0 0 0 0 0 0 0 0 0 0 0 0 0 0 0 0 0 0 0 0 0 0 0 0 0 0 0 0 0 0 0 0 0 0 0 0 0 0 0 0 0 0 0 0 0 0 0 0 0 0 0 0 0 0 0 0 0 0 0 0 0 0 0 0 0 0 0 0 0 0 0 0 0 0 0 0 0 0 0 0 0 0 0 0 0 0 0 0 0 0 0 0 0 0 0 0 0 0 0 0 0 0 0 0 0 0 0 0 0 0 0 0 0 0 0 0 0 0 0 0 0 0 0 0 0 0 0 0 0 0 0 0 0 0 0 0 0 0 0 0 0 0 0 0 0 0 0 0 0 0 0 0 0 0 0 0 0 0 0 0 0 0 0 0 0 0 0 0 0 0 0 0 0 0 0 0 0 0 0 0 0 0 0 0 0 0 0 0 0 0 0 0 0 0 0 0 0 0 0 0 0 0 0 0 0 0 0 0 0 0 0 0 0 0 0 0 0 0 0 0 0 0 0 0 0 0 0 0 0 0 0 0 0 0 0 0 0 0 0 0 0 0 0 0 0 0 0 0 0 0 0 0 0 0 0 0 0 0 0 0 0 0 0 0 0 0 0 0 0 0 0 0 0 0 0 0 0 0 0 0 0 0 0 0 0 0 0 0 0 0 0 0 0 0 0 0 0 0 0 0 0 0 0 0 0 0 0 0 0 0 0 0 0 0 0 0 0 0 0 0 0 0 0 0 0 0 0 0 0 0 0 0 0 0 0 0 0 0 0 0 0 0 0 0 0 0 0 0 0 0 0 0 0 0 0 0 0 0 0 0 0 0 0 0 0 0 0 0 0 0 0 0 0 0 0 0 0 0 0 0 0 0 0 0 0 0 0 0 0 0 0 0 0 0 0 0 0 0 0 0 0 0 0 0 0 0 0 0 0 0 0 0 0 0 0 0 0 0 0 0 0 0 0 0 0 0 0 0 0 0 0 0 0 0 0 0 0 0 0 0 0 0 0 0 0 0 0 0 0 0 0 0 0 0 0 0 0 0 0 0 0 0 0 0 0 0 0 0 0 0 0 0 0 0 0 0 0 0 0 0 0 0 0 0 0 0 0 0 0 0 0 0 0 0 0 0 0 0 0 0 0 0 0 0 0 0 0 0 0 0 0 0 0 0 0 0 0 0 0 0 0 0 0 0 0 0 0 0 0 0 0 0 0 0 0 0 0 0 0 0 0 0 0 0 0 0 0 0 0 0 0 0 0 0 0 0 0 0 0 0 0 0 0 0 0 0 0 0 0 0 0 0 0 0 0 0 0 0 0 0 0 0 0 0 0 0 0 0 0 0 0 0 0 0 0 0 0 0 0 0 0 0 0 0 0 0 0 0 0 0 0 0 0 0 0 0 0 0 0 0 0 0 0 0 0 0 0 0 0 0 0 0 0 0 0 0 0 0 0 0 0 0 0 0 0 0 0 0 0 0 0 0 0 0 0 0 0 0 0 0 0 0 0 0 0 0 0 0 0 0 0 0 0 0 0 0 0 0 0 0 0 0 0 0 0 0 0 0 0 0 0 0 0 0 0 0 0 0 0 0 0 0 0 0 0 0 0 0 0 0 0 0 0 0 0 0 0 0 0 0 0 0 0 0 0 0 0 0 0 0 0 0 0 0 0 0 0 0 0 0 0 0 0 0 0 0 0 0 0 0 0 0 0 0 0 0 0 0 0 0 0 0 0 0 0 0 0 0 0 0 0 0 0 0 0 0 0 0 0 0 0 0 0 0 0 0 0 0 0 0 0 0 0 0 0 0 0 0 0 0 0 0 0 0 0 0 0 0 0 0 0 0 0 0 0 0 0 0 0 0 0 0 0 0 0 0 0 0 0 0 0 0 0 0 0 0 0 0 0 0 0 0 0 0 0 0 0 0 0 0 0 0 0 0 0 0 0 0 0 0 0 0 0 0 0 0 0 0 0 0 0 0 0 0 0 0 0 0 0 0 0 0 0 0 0 0 0 0 0 0 0 0 0 0 0 0 0 0 0 0 0 0 0 0 0 0 0 0 0 0 0 0 0 0 0 0 0 0 0 0 0 0 0 0 0 0 0 0 0 0 0 0 0 0 0 0 0 0 0 0 0 0 0 0 0 0 0 0 0 0 0 0 0 0 0 0 0 0 0 0 0 0 0 0 0 0 0 0 0 0 0 0 0 0 0 0 0 0 0 0 0 0 0 0 0 0 0 0 0 0 0 0 0 0 0 0 0 0 0 0 0 0 0 0 0 0 0 0 0 0 0 0 0 0 0 0 0 0 0 0 0 0 0 0 0 0 0 0 0 0 0 0 0 0 0 0 0 0 0 0 0 0 0 0 0 0 0 0 0 0 0 0 0 0 0 0 0 0 0 0 0 0 0 0 0 0 0 0 0 0 0 0 0 0 0 0 0 0 0 0 0 0 0 0 0 0 0 0 0 0 0 0 0 0 0 0 0 0 0 0 0 0 0 0 0 0 0 0 0 0 0 0 0 0 0 0 0 0 0 0 0 0 0 0 0 0 0 0 0 0 0 0 0 0 0 0 0 0 0 0 0 0 0 0 0 0 0 0 0 0 0 0 0 0 0 0 0 0 0 0 0 0 0 0 0 0 0 0 0 0 0 0 0 0 0 0 0 0 0 0 0 0 0 0 0 0 0 0 0 0 0 0 0 0 0 0 0 0 0 0 0 0 0 0 0 0 0 0 0 0 0 0 0 0 0 0 0 0 0 0 0 0 0 0 0 0 0 0 0 0 0 0 0 0 0 0 0 0 0 0 0 0 0 0 0 0 0 0 0 0 0 0 0 0 0 0 0 0 0 0 0 0 0 0 0 0 0 0 0 0 0 0 0 0 0 0 0 0 0 0 0 0 0 0 0 0 0 0 0 0 0 0 0 0 0 0 0 0 0 0 0 0 0 0 0 0 0 0 0 0 0 0 0 0 0 0 0 0 0 0 0 0 0 0 0 0 0 0 0 0 0 0 0 0 0 0 0 0 0 0 0 0 0 0 0 0 0 0 0 0 0 0 0 0 0 0 0 0 0 0 0 0 0 0 0 0 0 0 0 0 0 0 0 0 0 0 0 0 0 0 0 0 0 0 0 0 0 0 0 0 0 0 0 0 0 0 0 0 0 0 0 0 0 0 0 0 0 0 0 0 0 0 0 0 0 0 0 0 0 0 0 0 0 0 0 0 0 0 0 0 0 0 0 0 0 0 0 0 0 0 0 0 0 0 0 0 0 0 0 0 0 0 0 0 0 0 0 0 0 0 0 0 0 0 0 0 0 0 0 0 0 0 0 0 0 0 0 0 0 0 0 0 0 0 0 0 0 0 0 0 0 0 0 0 0 0 0 0 0 0 0 0 0 0 0 0 0 0 0 0 0 0 0 0 0 0 0 0 0 0 0 0 0 0 0 0 0 0 0 0 0 0 0 0 0 0 0 0 0 0 0 0 0 0 0 0 0 0 0 0 0 0 0 0 0 0 0 0 0 0 0 0 0 0 0 0 0 0 0 0 0 0 0 0 0 0 0 0 0 0 0 0 0 0 0 0 0 0 0 0 0 0 0 0 0 0 0 0 0 0 0 0 0 0 0 0 0 0 0 0 0 0 0 0 0 0 0 0 0 0 0 0 0 0 0 0 0 0 0 0 0 0 0 0 0 0 0 0 0 0 0 0 0 0 0 0 0 0 0 0 0 0 0 0 0 0 0 0 0 0 0 0 0 0 0 0 0 0 0 0 0 0 0 0 0 0 0 0 0 0 0 0 0 0 0 0 0 0 0 0 0 0 0 0 0 0 0 0 0 0 0 0 0 0 0 0 0 0 0 0 0 0 0 0 0 0 0 0 0 0 0 0 0 0 0 0 0 0 0 0 0 0 0 0 0 0 0 0 0 0 0 0 0 0 0 0 0 0 0 0 0 0 0 0 0 0 0 0 0 0 0 0 0 0 0 0 0 0 0 0 0 0 0 0 0 0 0 0 0 0 0 0 0 0 0 0 0 0 0 0 0 0 0 0 0 0 0 0 0 0 0 0 0 0 0 0 0 0 0 0 0 0 0 0 0 0 0 0 0 0 0 0 0 0 0 0 0 0 0 0 0 0 0 0 0 0 0 0 0 0 0 0 0 0 0 0 0 0 0 0 0 0 0 0 0 0 0 0 0 0 0 0 0 0 0 0 0 0 0 0 0 0 0 0 0 0 0 0 0 0 0 0 0 0 0 0 0 0 0 0 0 0 0 0 0 0 0 0 0 0 0 0 0 0 0 0 0 0 0 0 0 0 0 0 0 0 0 0 0 0 0 0 0 0 0 0 0 0 0 0 0 0 0 0 0 0 0 0 0 0 0 0 0 0 0 0 0 0 0 0 0 0 0 0 0 0 0 0 0 0 0 0 0 0 0 0 0 0 0 0 0 0 0 0 0 0 0 0 0 0 0 0 0 0 0 0 0 0 0 0 0 0 0 0 0 0 0 0 0 0 0 0 0 0 0 0 0 0 0 0 0 0 0 0 0 0 0 0 0 0 0 0 0 0 0 0 0 0 0 0 0 0 0 0 0 0 0 0 0 0 0 0 0 0 0 0 0 0 0 0 0 0 0 0 0 0 0 0 0 0 0 0 0 0 0 0 0 0 0 0 0 0 0 0 0 0 0 0 0 0 0 0 0 0 0 0 0 0 0 0 0 0 0 0 0 0 0 0 0 0 0 0 0 0 0 0 0 0 0 0 0 0 0 0 0 0 0 0 0 0 0 0 0 0 0 0 0 0 0 0 0 0 0 0 0 0 0 0 0 0 0 0 0 0 0 0 0 0 0 0 0 0 0 0 0 0 0 0 0 0 0 0 0 0 0 0 0 0 0 0 0 0 0 0 0 0 0 0 0 0 0 0 0 0 0 0 0 0 0 0 0 0 0 0 0 0 0 0 0 0 0 0 0 0 0 0 0 0 0 0 0 0 0 0 0 0 0 0 0 0 0 0 0 0 0 0 0 0 0 0 0 0 0 0 0 0 0 0 0 0 0 0 0 0 0 0 0 0 0 0 0 0 0 0 0 0 0 0 0 0 0 0 0 0 0 0 0 0 0 0 0 0 0 0 0 0 0 0 0 0 0 0 0 0 0 0 0 0 0 0 0 0 0 0 0 0 0 0 0 0 0 0 0 0 0 0 0 0 0 0 0 0 0 0 0 0 0 0 0 0 0 0 0 0 0 0 0 0 0 0 0 0 0 0 0 0 0 0 0 0 0 0 0 0 0 0 0 0 0 0 0 0 0 0 0 0 0 0 0 0 0 0 0 0 0 0 0 0 0 0 0 0 0 0 0 0 0 0 0 0 0 0 0 0 0 0 0 0 0 0 0 0 0 0 0 0 0 0 0 0 0 0 0 0 0 0 0 0 0 0 0 0 0 0 0 0 0 0 0 0 0 0 0 0 0 0 0 0 0 0 0 0 0 0 0 0 0 0 0 0 0 0 0 0 0 0 0 0 0 0 0 0 0 0 0 0 0 0 0 0 0 0 0 0 0 0 0 0 0 0 0 0 0 0 0 0 0 0 0 0 0 0 0 0 0 0 0 0 0 0 0 0 0 0 0 0 0 0 0 0 0 0 0 0 0 0 0 0 0 0 0 0 0 0 0 0 0 0 0 0 0 0 0 0 0 0 0 0 0 0 0 0 0 0 0 0 0 0 0 0 0 0 0 0 0 0 0 0 0 0 0 0 0 0 0 0 0 0 0 0 0 0 0 0 0 0 0 0 0 0 0 0 0 0 0 0 0 0 0 0 0 0 0 0 0 0 0 0 0 0 0 0 0 0 0 0 0 0 0 0 0 0 0 0 0 0 0 0 0 0 0 0 0 0 0 0 0 0 0 0 0 0 0 0 0 0 0 0 0 0 0 0 0 0 0 0 0 0 0 0 0 0 0 0 0 0 0 0 0 0 0 0 0 0 0 0 0 0 0 0 0 0 0 0 0 0 0 0 0 0 0 0 0 0 0 0 0 0 0 0 0 0 0 0 0 0 0 0 0 0 0 0 0 0 0 0 0 0 0 0 0 0 0 0 0 0 0 0 0 0 0 0 0 0 0 0 0 0 0 0 0 0 0 0 0 0 0 0 0 0 0 0 0 0 0 0 0 0 0 0 0 0 0 0 0 0 0 0 0 0 0 0 0 0 0 0 0 0 0 0 0 0 0 0 0 0 0 0 0 0 0 0 0 0 0 0 0 0 0 0 0 0 0 0 0 0 0 0 0 0 0 0 0 0 0 0 0 0 0 0 0 0 0 0 0 0 0 0 0 0 0 0 0 0 0 0 0 0 0 0 0 0 0 0 0 0 0 0 0 0 0 0 0 0 0 0 0 0 0 0 0 0 0 0 0 0 0 0 0 0 0 0 0 0 0 0 0 0 0 0 0 0 0 0 0 0 0 0 0 0 0 0 0 0 0 0 0 0 0 0 0 0 0 0 0 0 0 0 0 0 0 0 0 0 0 0 0 0 0 0 0 0 0 0 0 0 0 0 0 0 0 0 0 0 0 0 0 0 0 0 0 0 0 0 0 0 0 0 0 0 0 0 0 0 0 0 0 0 0 0 0 0 0 0 0 0 0 0 0 0 0 0 0 0 0 0 0 0 0 0 0 0 0 0 0 0 0 0 0 0 0 0 0 0 0 0 0 0 0 0 0 0 0 0 0 0 0 0 0 0 0 0 0 0 0 0 0 0 0 0 0 0 0 0 0 0 0 0 0 0 0 0 0 0 0 0 0 0 0 0 0 0 0 0 0 0 0 0 0 0 0 0 0 0 0 0 0 0 0 0 0 0 0 0 0 0 0 0 0 0 0 0 0 0 0 0 0 0 0 0 0 0 0 0 0 0 0 0 0 0 0 0 0 0 0 0 0 0 0 0 0 0 0 0 0 0 0 0 0 0 0 0 0 0 0 0 0 0 0 0 0 0 0 0 0 0 0 0 0 0 0 0 0 0 0 0 0 0 0 0 0 0 0 0 0 0 0 0 0 0 0 0 0 0 0 0 0 0 0 0 0 0 0 0 0 0 0 0 0 0 0 0 0 0 0 0 0 0 0 0 0 0 0 0 0 0 0 0 0 0 0 0 0 0 0 0 0 0 0 0 0 0 0 0 0 0 0 0 0 0 0 0 0 0 0 0 0 0 0 0 0 0 0 0 0 0 0 0 0 0 0 0 0 0 0 0 0 0 0 0 0 0 0 0 0 0 0 0 0 0 0 0 0 0 0 0 0 0 0 0 0 0 0 0 0 0 0 0 0 0 0 0 0 0 0 0 0 0 0 0 0 0 0 0 0 0 0 0 0 0 0 0 0 0 0 0 0 0 0 0 0 0 0 0 0 0 0 0 0 0 0 0 0 0 0 0 0 0 0 0 0 0 0 0 0 0 0 0 0 0 0 0 0 0 0 0 0 0 0 0 0 0 0 0 0 0 0 0 0 0 0 0 0 0 0 0 0 0 0 0 0 0 0 0 0 0 0 0 0 0 0 0 0 0 0 0 0 0 0 0 0 0 0 0 0 0 0 0 0 0 0 0 0 0 0 0 0 0 0 0 0 0 0 0 0 0 0 0 0 0 0 0 0 0 0 0 0 0 0 0 0 0 0 0 0 0 0 0 0 0 0 0 0 0 0 0 0 0 0 0 0 0 0 0 0 0 0 0 0 0 0 0 0 0 0 0 0 0 0 0 0 0 0 0 0 0 0 0 0 0 0 0 0 0 0 0 0 0 0 0 0 0 0 0 0 0 0 0 0 0 0 0 0 0 0 0 0 0 0 0 0 0 0 0 0 0 0 0 0 0 0 0 0 0 0 0 0 0 0 0 0 0 0 0 0 0 0 0 0 0 0 0 0 0 0 0 0 0 0 0 0 0 0 0 0 0 0 0 0 0 0 0 0 0 0 0 0 0 0 0 0 0 0 0 0 0 0 0 0 0 0 0 0 0 0 0 0 0 0 0 0 0 0 0 0 0 0 0 0 0 0 0 0 0 0 0 0 0 0 0 0 0 0 0 0 0 0 0 0 0 0 0 0 0 0 0 0 0 0 0 0 0 0 0 0 0 0 0 0 0 0 0 0 0 0 0 0 0 0 0 0 0 0 0 0 0 0 0 0 0 0 0 0 0 0 0 0 0 0 0 0 0 0 0 0 0 0 0 0 0 0 0 0 0 0 0 0 0 0 0 0 0 0 0 0 0 0 0 0 0 0 0 0 0 0 0 0 0 0 0 0 0 0 0 0 0 0 0 0 0 0 0 0 0 0 0 0 0 0 0 0 0 0 0 0 0 0 0 0 0 0 0 0 0 0 0 0 0 0 0 0 0 0 0 0 0 0 0 0 0 0 0 0 0 0 0 0 0 0 0 0 0 0 0 0 0 0 0 0 0 0 0 0 0 0 0 0 0 0 0 0 0 0 0 0 0 0 0 0 0 0 0 0 0 0 0 0 0 0 0 0 0 0 0 0 0 0 0 0 0 0 0 0 0 0 0 0 0 0 0 0 0 0 0 0 0 0 0 0 0 0 0 0 0 0 0 0 0 0 0 0 0 0 0 0 0 0 0 0 0 0 0 0 0 0 0 0 0 0 0 0 0 0 0 0 0 0 0 0 0 0 0 0 0 0 0 0 0 0 0 0 0 0 0 0 0 0 0 0 0 0 0 0 0 0 0 0 0 0 0 0 0 0 0 0 0 0 0 0 0 0 0 0 0 0 0 0 0 0 0 0 0 0 0 0 0 0 0 0 0 0 0 0 0 0 0 0 0 0 0 0 0 0 0 0 0 0 0 0 0 0 0 0 0 0 0 0 0 0 0 0 0 0 0 0 0 0 0 0 0 0 0 0 0 0 0 0 0 0 0 0 0 0 0 0 0 0 0 0 0 0 0 0 0 0 0 0 0 0 0 0 0 0 0 0 0 0 0 0 0 0 0 0 0 0 0 0 0 0 0 0 0 0 0 0 0 0 0 0 0 0 0 0 0 0 0 0 0 0 0 0 0 0 0 0 0 0 0 0 0 0 0 0 0 0 0 0 0 0 0 0 0 0 0 0 0 0 0 0 0 0 0 0 0 0 0 0 0 0 0 0 0 0 0 0 0 0 0 0 0 0 0 0 0 0 0 0 0 0 0 0 0 0 0 0 0 0 0 0 0 0 0 0 0 0 0 0 0 0 0 0 0 0 0 0 0 0 0 0 0 0 0 0 0 0 0 0 0 0 0 0 0 0 0 0 0 0 0 0 0 0 0 0 0 0 0 0 0 0 0 0 0 0 0 0 0 0 0 0 0 0 0 0 0 0 0 0 0 0 0 0 0 0 0 0 0 0 0 0 0 0 0 0 0 0 0 0 0 0 0 0 0 0 0 0 0 0 0 0 0 0 0 0 0 0 0 0 0 0 0 0 0 0 0 0 0 0 0 0 0 0 0 0 0 0 0 0 0 0 0 0 0 0 0 0 0 0 0 0 0 0 0 0 0 0 0 0 0 0 0 0 0 0 0 0 0 0 0 0 0 0 0 0 0 0 0 0 0 0 0 0 0 0 0 0 0 0 0 0 0 0 0 0 0 0 0 0 0 0 0 0 0 0 0 0 0 0 0 0 0 0 0 0 0 0 0 0 0 0 0 0 0 0 0 0 0 0 0 0 0 0 0 0 0 0 0 0 0 0 0 0 0 0 0 0 0 0 0 0 0 0 0 0 0 0 0 0 0 0 0 0 0 0 0 0 0 0 0 0 0 0 0 0 0 0 0 0 0 0 0 0 0 0 0 0 0 0 0 0 0 0 0 0 0 0 0 0 0 0 0 0 0 0 0 0 0 0 0 0 0 0 0 0 0 0 0 0 0 0 0 0 0 0 0 0 0 0 0 0 0 0 0 0 0 0 0 0 0 0 0 0 0 0 0 0 0 0 0 0 0 0 0 0 0 0 0 0 0 0 0 0 0 0 0 0 0 0 0 0 0 0 0 0 0 0 0 0 0 0 0 0 0 0 0 0 0 0 0 0 0 0 0 0 0 0 0 0 0 0 0 0 0 0 0 0 0 0 0 0 0 0 0 0 0 0 0 0 0 0 0 0 0 0 0 0 0 0 0 0 0 0 0 0 0 0 0 0 0 0 0 0 0 0 0 0 0 0 0 0 0 0 0 0 0 0 0 0 0 0 0 0 0 0 0 0 0 0 0 0 0 0 0 0 0 0 0 0 0 0 0 0 0 0 0 0 0 0 0 0 0 0 0 0 0 0 0 0 0 0 0 0 0 0 0 0 0 0 0 0 0 0 0 0 0 0 0 0 0 0 0 0 0 0 0 0 0 0 0 0 0 0 0 0 0 0 0 0 0 0 0 0 0 0 0 0 0 0 0 0 0 0 0 0 0 0 0 0 0 0 0 0 0 0 0 0 0 0 0 0 0 0 0 0 0 0 0 0 0 0 0 0 0 0 0 0 0 0 0 0 0 0 0 0 0 0 0 0 0 0 0 0 0 0 0 0 0 0 0 0 0 0 0 0 0 0 0 0 0 0 0 0 0 0 0 0 0 0 0 0 0 0 0 0 0 0 0 0 0 0 0 0 0 0 0 0 0 0 0 0 0 0 0 0 0 0 0 0 0 0 0 0 0 0 0 0 0 0 0 0 0 0 0 0 0 0 0 0 0 0 0 0 0 0 0 0 0 0 0 0 0 0 0 0 0 0 0 0 0 0 0 0 0 0 0 0 0 0 0 0 0 0 0 0 0 0 0 0 0 0 0 0 0 0 0 0 0 0 0 0 0 0 0 0 0 0 0 0 0 0 0 0 0 0 0 0 0 0 0 0 0 0 0 0 0 0 0 0 0 0 0 0 0 0 0 0 0 0 0 0 0 0 0 0 0 0 0 0 0 0 0 0 0 0 0 0 0 0 0 0 0 0 0 0 0 0 0 0 0 0 0 0 0 0 0 0 0 0 0 0 0 0 0 0 0 0 0 0 0 0 0 0 0 0 0 0 0 0 0 0 0 0 0 0 0 0 0 0 0 0 0 0 0 0 0 0 0 0 0 0 0 0 0 0 0 0 0 0 0 0 0 0 0 0 0 0 0 0 0 0 0 0 0 0 0 0 0 0 0 0 0 0 0 0 0 0 0 0 0 0 0 0 0 0 0 0 0 0 0 0 0 0 0 0 0 0 0 0 0 0 0 0 0 0 0 0 0 0 0 0 0 0 0 0 0 0 0 0 0 0 0 0 0 0 0 0 0 0 0 0 0 0 0 0 0 0 0 0 0 0 0 0 0 0 0 0 0 0 0 0 0 0 0 0 0 0 0 0 0 0 0 0 0 0 0 0 0 0 0 0 0 0 0 0 0 0 0 0 0 0 0 0 0 0 0 0 0 0 0 0 0 0 0 0 0 0 0 0 0 0 0 0 0 0 0 0 0 0 0 0 0 0 0 0 0 0 0 0 0 0 0 0 0 0 0 0 0 0 0 0 0 0 0 0 0 0 0 0 0 0 0 0 0 0 0 0 0 0 0 0 0 0 0 0 0 0 0 0 0 0 0 0 0 0 0 0 0 0 0 0 0 0 0 0 0 0 0 0 0 0 0 0 0 0 0 0 0 0 0 0 0 0 0 0 0 0 0 0 0 0 0 0 0 0 0 0 0 0 0 0 0 0 0 0 0 0 0 0 0 0 0 0 0 0 0 0 0 0 0 0 0 0 0 0 0 0 0 0 0 0 0 0 0 0 0 0 0 0 0 0 0 0 0 0 0 0 0 0 0 0 0 0 0 0 0 0 0 0 0 0 0 0 0 0 0 0 0 0 0 0 0 0 0 0 0 0 0 0 0 0 0 0 0 0 0 0 0 0 0 0 0 0 0 0 0 0 0 0 0 0 0 0 0 0 0 0 0 0 0 0 0 0 0 0 0 0 0 0 0 0 0 0 0 0 0 0 0 0 0 0 0 0 0 0 0 0 0 0 0 0 0 0 0 0 0 0 0 0 0 0 0 0 0 0 0 0 0 0 0 0 0 0 0 0 0 0 0 0 0 0 0 0 0 0 0 0 0 0 0 0 0 0 0 0 0 0 0 0 0 0 0 0 0 0 0 0 0 0 0 0 0 0 0 0 0 0 0 0 0 0 0 0 0 0 0 0 0 0 0 0 0 0 0 0 0 0 0 0 0 0 0 0 0 0 0 0 0 0 0 0 0 0 0 0 0 0 0 0 0 0 0 0 0 0 0 0 0 0 0 0 0 0 0 0 0 0 0 0 0 0 0 0 0 0 0 0 0 0 0 0 0 0 0 0 0 0 0 0 0 0 0 0 0 0 0 0 0 0 0 0 0 0 0 0 0 0 0 0 0 0 0 0 0 0 0 0 0 0 0 0 0 0 0 0 0 0 0 0 0 0 0 0 0 0 0 0 0 0 0 0 0 0 0 0 0 0 0 0 0 0 0 0 0 0 0 0 0 0 0 0 0 0 0 0 0 0 0 0 0 0 0 0 0 0 0 0 0 0 0 0 0 0 0 0 0 0 0 0 0 0 0 0 0 0 0 0 0 0 0 0 0 0 0 0 0 0 0 0 0 0 0 0 0 0 0 0 0 0 0 0 0 0 0 0 0 0 0 0 0 0 0 0 0 0 0 0 0 0 0 0 0 0 0 0 0 0 0 0 0 0 0 0 0 0 0 0 0 0 0 0 0 0 0 0 0 0 0 0 0 0 0 0 0 0 0 0 0 0 0 0 0 0 0 0 0 0 0 0 0 0 0 0 0 0 0 0 0 0 0 0 0 0 0 0 0 0 0 0 0 0 0 0 0 0 0 0 0 0 0 0 0 0 0 0 0 0 0 0 0 0 0 0 0 0 0 0 0 0 0 0 0 0 0 0 0 0 0 0 0 0 0 0 0 0 0 0 0 0 0 0 0 0 0 0 0 0 0 0 0 0 0 0 0 0 0 0 0 0 0 0 0 0 0 0 0 0 0 0 0 0 0 0 0 0 0 0 0 0 0 0 0 0 0 0 0 0 0 0 0 0 0 0 0 0 0 0 0 0 0 0 0 0 0 0 0 0 0 0 0 0 0 0 0 0 0 0 0 0 0 0 0 0 0 0 0 0 0 0 0 0 0 0 0 0 0 0 0 0 0 0 0 0 0 0 0 0 0 0 0 0 0 0 0 0 0 0 0 0 0 0 0 0 0 0 0 0 0 0 0 0 0 0 0 0 0 0 0 0 0 0 0 0 0 0 0 0 0 0 0 0 0 0 0 0 0 0 0 0 0 0 0 0 0 0 0 0 0 0 0 0 0 0 0 0 0 0 0 0 0 0 0 0 0 0 0 0 0 0 0 0 0 0 0 0 0 0 0 0 0 0 0 0 0 0 0 0 0 0 0 0 0 0 0 0 0 0 0 0 0 0 0 0 0 0 0 0 0 0 0 0 0 0 0 0 0 0 0 0 0 0 0 0 0 0 0 0 0 0 0 0 0 0 0 0 0 0 0 0 0 0 0 0 0 0 0 0 0 0 0 0 0 0 0 0 0 0 0 0 0 0 0 0 0 0 0 0 0 0 0 0 0 0 0 0 0 0 0 0 0 0 0 0 0 0 0 0 0 0 0 0 0 0 0 0 0 0 0 0 0 0 0 0 0 0 0 0 0 0 0 0 0 0 0 0 0 0 0 0 0 0 0 0 0 0 0 0 0 0 0 0 0 0 0 0 0 0 0 0 0 0 0 0 0 0 0 0 0 0 0 0 0 0 0 0 0 0 0 0 0 0 0 0 0 0 0 0 0 0 0 0 0 0 0 0 0 0 0 0 0 0 0 0 0 0 0 0 0 0 0 0 0 0 0 0 0 0 0 0 0 0 0 0 0 0 0 0 0 0 0 0 0 0 0 0 0 0 0 0 0 0 0 0 0 0 0 0 0 0 0 0 0 0 0 0 0 0 0 0 0 0 0 0 0 0 0 0 0 0 0 0 0 0 0 0 0 0 0 0 0 0 0 0 0 0 0 0 0 0 0 0 0 0 0 0 0 0 0 0 0 0 0 0 0 0 0 0 0 0 0 0 0 0 0 0 0 0 0 0 0 0 0 0 0 0 0 0 0 0 0 0 0 0 0 0 0 0 0 0 0 0 0 0 0 0 0 0 0 0 0 0 0 0 0 0 0 0 0 0 0 0 0 0 0 0 0 0 0 0 0 0 0 0 0 0 0 0 0 0 0 0 0 0 0 0 0 0 0 0 0 0 0 0 0 0 0 0 0 0 0 0 0 0 0 0 0 0 0 0 0 0 0 0 0 0 0 0 0 0 0 0 0 0 0 0 0 0 0 0 0 0 0 0 0 0 0 0 0 0 0 0 0 0 0 0 0 0 0 0 0 0 0 0 0 0 0 0 0 0 0 0 0 0 0 0 0 0 0 0 0 0 0 0 0 0 0 0 0 0 0 0 0 0 0 0 0 0 0 0 0 0 0 0 0 0 0 0 0 0 0 0 0 0 0 0 0 0 0 0 0 0 0 0 0 0 0 0 0 0 0 0 0 0 0 0 0 0 0 0 0 0 0 0 0 0 0 0 0 0 0 0 0 0 0 0 0 0 0 0 0 0 0 0 0 0 0 0 0 0 0 0 0 0 0 0 0 0 0 0 0 0 0 0 0 0 0 0 0 0 0 0 0 0 0 0 0 0 0 0 0 0 0 0 0 0 0 0 0 0 0 0 0 0 0 0 0 0 0 0 0 0 0 0 0 0 0 0 0 0 0 0 0 0 0 0 0 0 0 0 0 0 0 0 0 0 0 0 0 0 0 0 0 0 0 0 0 0 0 0 0 0 0 0 0 0 0 0 0 0 0 0 0 0 0 0 0 0 0 0 0 0 0 0 0 0 0 0 0 0 0 0 0 0 0 0 0 0 0 0 0 0 0 0 0 0 0 0 0 0 0 0 0 0 0 0 0 0 0 0 0 0 0 0 0 0 0 0 0 0 0 0 0 0 0 0 0 0 0 0 0 0 0 0 0 0 0 0 0 0 0 0 0 0 0 0 0 0 0 0 0 0 0 0 0 0 0 0 0 0 0 0 0 0 0 0 0 0 0 0 0 0 0 0 0 0 0 0 0 0 0 0 0 0 0 0 0 0 0 0 0 0 0 0 0 0 0 0 0 0 0 0 0 0 0 0 0 0 0 0 0 0 0 0 0 0 0 0 0 0 0 0 0 0 0 0 0 0 0 0 0 0 0 0 0 0 0 0 0 0 0 0 0 0 0 0 0 0 0 0 0 0 0 0 0 0 0 0 0 0 0 0 0 0 0 0 0 0 0 0 0 0 0 0 0 0 0 0 0 0 0 0 0 0 0 0 0 0 0 0 0 0 0 0 0 0 0 0 0 0 0 0 0 0 0 0 0 0 0 0 0 0 0 0 0 0 0 0 0 0 0 0 0 0 0 0 0 0 0 0 0 0 0 0 0 0 0 0 0 0 0 0 0 0 0 0 0 0 0 0 0 0 0 0 0 0 0 0 0 0 0 0 0 0 0 0 0 0 0 0 0 0 0 0 0 0 0 0 0 0 0 0 0 0 0 0 0 0 0 0 0 0 0 0 0 0 0 0 0 0 0 0 0 0 0 0 0 0 0 0 0 0 0 0 0 0 0 0 0 0 0 0 0 0 0 0 0 0 0 0 0 0 0 0 0 0 0 0 0 0 0 0 0 0 0 0 0 0 0 0 0 0 0 0 0 0 0 0 0 0 0 0 0 0 0 0 0 0 0 0 0 0 0 0 0 0 0 0 0 0 0 0 0 0 0 0 0 0 0 0 0 0 0 0 0 0 0 0 0 0 0 0 0 0 0 0 0 0 0 0 0 0 0 0 0 0 0 0 0 0 0 0 0 0 0 0 0 0 0 0 0 0 0 0 0 0 0 0 0 0 0 0 0 0 0 0 0 0 0 0 0 0 0 0 0 0 0 0 0 0 0 0 0 0 0 0 0 0 0 0 0 0 0 0 0 0 0 0 0 0 0 0 0 0 0 0 0 0 0 0 0 0 0 0 0 0 0 0 0 0 0 0 0 0 0 0 0 0 0 0 0 0 0 0 0 0 0 0 0 0 0 0 0 0 0 0 0 0 0 0 0 0 0 0 0 0 0 0 0 0 0 0 0 0 0 0 0 0 0 0 0 0 0 0 0 0 0 0 0 0 0 0 0 0 0 0 0 0 0 0 0 0 0 0 0 0 0 0 0 0 0 0 0 0 0 0 0 0 0 0 0 0 0 0 0 0 0 0 0 0 0 0 0 0 0 0 0 0 0 0 0 0 0 0 0 0 0 0 0 0 0 0 0 0 0 0 0 0 0 0 0 0 0 0 0
</DataArray>
<DataArray Name="GAMMA" NumberOfComponents="3" type="Float32" format="ascii" >
 0 0 0 0 0 0 0 0 0 0 0 0 0 0 0 0 0 0 0 0 0 0 0 0 0 0 0 0 0 0 0 0 0 0 0 0 0 0 0 0 0 0 0 0 0 0 0 0 0 0 0 0 0 0 0 0 0 0 0 0 0 0 0 0 0 0 0 0 0 0 0 0 0 0 0 0 0 0 0 0 0 0 0 0 0 0 0 0 0 0 0 0 0 0 0 0 0 0 0 0 0 0 0 0 0 0 0 0 0 0 0 0 0 0 0 0 0 0 0 0 0 0 0 0 0 0 0 0 0 0 0 0 0 0 0 0 0 0 0 0 0 0 0 0 0 0 0 0 0 0 0 0 0 0 0 0 0 0 0 0 0 0 0 0 0 0 0 0 0 0 0 0 0 0 0 0 0 0 0 0 0 0 0 0 0 0 0 0 0 0 0 0 0 0 0 0 0 0 0 0 0 0 0 0 0 0 0 0 0 0 0 0 0 0 0 0 0 0 0 0 0 0 0 0 0 0 0 0 0 0 0 0 0 0 0 0 0 0 0 0 0 0 0 0 0 0 0 0 0 0 0 0 0 0 0 0 0 0 0 0 0 0 0 0 0 0 0 0 0 0 0 0 0 0 0 0 0 0 0 0 0 0 0 0 0 0 0 0 0 0 0 0 0 0 0 0 0 0 0 0 0 0 0 0 0 0 0 0 0 0 0 0 0 0 0 0 0 0 0 0 0 0 0 0 0 0 0 0 0 0 0 0 0 0 0 0 0 0 0 0 0 0 0 0 0 0 0 0 0 0 0 0 0 0 0 0 0 0 0 0 0 0 0 0 0 0 0 0 0 0 0 0 0 0 0 0 0 0 0 0 0 0 0 0 0 0 0 0 0 0 0 0 0 0 0 0 0 0 0 0 0 0 0 0 0 0 0 0 0 0 0 0 0 0 0 0 0 0 0 0 0 0 0 0 0 0 0 0 0 0 0 0 0 0 0 0 0 0 0 0 0 0 0 0 0 0 0 0 0 0 0 0 0 0 0 0 0 0 0 0 0 0 0 0 0 0 0 0 0 0 0 0 0 0 0 0 0 0 0 0 0 0 0 0 0 0 0 0 0 0 0 0 0 0 0 0 0 0 0 0 0 0 0 0 0 0 0 0 0 0 0 0 0 0 0 0 0 0 0 0 0 0 0 0 0 0 0 0 0 0 0 0 0 0 0 0 0 0 0 0 0 0 0 0 0 0 0 0 0 0 0 0 0 0 0 0 0 0 0 0 0 0 0 0 0 0 0 0 0 0 0 0 0 0 0 0 0 0 0 0 0 0 0 0 0 0 0 0 0 0 0 0 0 0 0 0 0 0 0 0 0 0 0 0 0 0 0 0 0 0 0 0 0 0 0 0 0 0 0 0 0 0 0 0 0 0 0 0 0 0 0 0 0 0 0 0 0 0 0 0 0 0 0 0 0 0 0 0 0 0 0 0 0 0 0 0 0 0 0 0 0 0 0 0 0 0 0 0 0 0 0 0 0 0 0 0 0 0 0 0 0 0 0 0 0 0 0 0 0 0 0 0 0 0 0 0 0 0 0 0 0 0 0 0 0 0 0 0 0 0 0 0 0 0 0 0 0 0 0 0 0 0 0 0 0 0 0 0 0 0 0 0 0 0 0 0 0 0 0 0 0 0 0 0 0 0 0 0 0 0 0 0 0 0 0 0 0 0 0 0 0 0 0 0 0 0 0 0 0 0 0 0 0 0 0 0 0 0 0 0 0 0 0 0 0 0 0 0 0 0 0 0 0 0 0 0 0 0 0 0 0 0 0 0 0 0 0 0 0 0 0 0 0 0 0 0 0 0 0 0 0 0 0 0 0 0 0 0 0 0 0 0 0 0 0 0 0 0 0 0 0 0 0 0 0 0 0 0 0 0 0 0 0 0 0 0 0 0 0 0 0 0 0 0 0 0 0 0 0 0 0 0 0 0 0 0 0 0 0 0 0 0 0 0 0 0 0 0 0 0 0 0 0 0 0 0 0 0 0 0 0 0 0 0 0 0 0 0 0 0 0 0 0 0 0 0 0 0 0 0 0 0 0 0 0 0 0 0 0 0 0 0 0 0 0 0 0 0 0 0 0 0 0 0 0 0 0 0 0 0 0 0 0 0 0 0 0 0 0 0 0 0 0 0 0 0 0 0 0 0 0 0 0 0 0 0 0 0 0 0 0 0 0 0 0 0 0 0 0 0 0 0 0 0 0 0 0 0 0 0 0 0 0 0 0 0 0 0 0 0 0 0 0 0 0 0 0 0 0 0 0 0 0 0 0 0 0 0 0 0 0 0 0 0 0 0 0 0 0 0 0 0 0 0 0 0 0 0 0 0 0 0 0 0 0 0 0 0 0 0 0 0 0 0 0 0 0 0 0 0 0 0 0 0 0 0 0 0 0 0 0 0 0 0 0 0 0 0 0 0 0 0 0 0 0 0 0 0 0 0 0 0 0 0 0 0 0 0 0 0 0 0 0 0 0 0 0 0 0 0 0 0 0 0 0 0 0 0 0 0 0 0 0 0 0 0 0 0 0 0 0 0 0 0 0 0 0 0 0 0 0 0 0 0 0 0 0 0 0 0 0 0 0 0 0 0 0 0 0 0 0 0 0 0 0 0 0 0 0 0 0 0 0 0 0 0 0 0 0 0 0 0 0 0 0 0 0 0 0 0 0 0 0 0 0 0 0 0 0 0 0 0 0 0 0 0 0 0 0 0 0 0 0 0 0 0 0 0 0 0 0 0 0 0 0 0 0 0 0 0 0 0 0 0 0 0 0 0 0 0 0 0 0 0 0 0 0 0 0 0 0 0 0 0 0 0 0 0 0 0 0 0 0 0 0 0 0 0 0 0 0 0 0 0 0 0 0 0 0 0 0 0 0 0 0 0 0 0 0 0 0 0 0 0 0 0 0 0 0 0 0 0 0 0 0 0 0 0 0 0 0 0 0 0 0 0 0 0 0 0 0 0 0 0 0 0 0 0 0 0 0 0 0 0 0 0 0 0 0 0 0 0 0 0 0 0 0 0 0 0 0 0 0 0 0 0 0 0 0 0 0 0 0 0 0 0 0 0 0 0 0 0 0 0 0 0 0 0 0 0 0 0 0 0 0 0 0 0 0 0 0 0 0 0 0 0 0 0 0 0 0 0 0 0 0 0 0 0 0 0 0 0 0 0 0 0 0 0 0 0 0 0 0 0 0 0 0 0 0 0 0 0 0 0 0 0 0 0 0 0 0 0 0 0 0 0 0 0 0 0 0 0 0 0 0 0 0 0 0 0 0 0 0 0 0 0 0 0 0 0 0 0 0 0 0 0 0 0 0 0 0 0 0 0 0 0 0 0 0 0 0 0 0 0 0 0 0 0 0 0 0 0 0 0 0 0 0 0 0 0 0 0 0 0 0 0 0 0 0 0 0 0 0 0 0 0 0 0 0 0 0 0 0 0 0 0 0 0 0 0 0 0 0 0 0 0 0 0 0 0 0 0 0 0 0 0 0 0 0 0 0 0 0 0 0 0 0 0 0 0 0 0 0 0 0 0 0 0 0 0 0 0 0 0 0 0 0 0 0 0 0 0 0 0 0 0 0 0 0 0 0 0 0 0 0 0 0 0 0 0 0 0 0 0 0 0 0 0 0 0 0 0 0 0 0 0 0 0 0 0 0 0 0 0 0 0 0 0 0 0 0 0 0 0 0 0 0 0 0 0 0 0 0 0 0 0 0 0 0 0 0 0 0 0 0 0 0 0 0 0 0 0 0 0 0 0 0 0 0 0 0 0 0 0 0 0 0 0 0 0 0 0 0 0 0 0 0 0 0 0 0 0 0 0 0 0 0 0 0 0 0 0 0 0 0 0 0 0 0 0 0 0 0 0 0 0 0 0 0 0 0 0 0 0 0 0 0 0 0 0 0 0 0 0 0 0 0 0 0 0 0 0 0 0 0 0 0 0 0 0 0 0 0 0 0 0 0 0 0 0 0 0 0 0 0 0 0 0 0 0 0 0 0 0 0 0 0 0 0 0 0 0 0 0 0 0 0 0 0 0 0 0 0 0 0 0 0 0 0 0 0 0 0 0 0 0 0 0 0 0 0 0 0 0 0 0 0 0 0 0 0 0 0 0 0 0 0 0 0 0 0 0 0 0 0 0 0 0 0 0 0 0 0 0 0 0 0 0 0 0 0 0 0 0 0 0 0 0 0 0 0 0 0 0 0 0 0 0 0 0 0 0 0 0 0 0 0 0 0 0 0 0 0 0 0 0 0 0 0 0 0 0 0 0 0 0 0 0 0 0 0 0 0 0 0 0 0 0 0 0 0 0 0 0 0 0 0 0 0 0 0 0 0 0 0 0 0 0 0 0 0 0 0 0 0 0 0 0 0 0 0 0 0 0 0 0 0 0 0 0 0 0 0 0 0 0 0 0 0 0 0 0 0 0 0 0 0 0 0 0 0 0 0 0 0 0 0 0 0 0 0 0 0 0 0 0 0 0 0 0 0 0 0 0 0 0 0 0 0 0 0 0 0 0 0 0 0 0 0 0 0 0 0 0 0 0 0 0 0 0 0 0 0 0 0 0 0 0 0 0 0 0 0 0 0 0 0 0 0 0 0 0 0 0 0 0 0 0 0 0 0 0 0 0 0 0 0 0 0 0 0 0 0 0 0 0 0 0 0 0 0 0 0 0 0 0 0 0 0 0 0 0 0 0 0 0 0 0 0 0 0 0 0 0 0 0 0 0 0 0 0 0 0 0 0 0 0 0 0 0 0 0 0 0 0 0 0 0 0 0 0 0 0 0 0 0 0 0 0 0 0 0 0 0 0 0 0 0 0 0 0 0 0 0 0 0 0 0 0 0 0 0 0 0 0 0 0 0 0 0 0 0 0 0 0 0 0 0 0 0 0 0 0 0 0 0 0 0 0 0 0 0 0 0 0 0 0 0 0 0 0 0 0 0 0 0 0 0 0 0 0 0 0 0 0 0 0 0 0 0 0 0 0 0 0 0 0 0 0 0 0 0 0 0 0 0 0 0 0 0 0 0 0 0 0 0 0 0 0 0 0 0 0 0 0 0 0 0 0 0 0 0 0 0 0 0 0 0 0 0 0 0 0 0 0 0 0 0 0 0 0 0 0 0 0 0 0 0 0 0 0 0 0 0 0 0 0 0 0 0 0 0 0 0 0 0 0 0 0 0 0 0 0 0 0 0 0 0 0 0 0 0 0 0 0 0 0 0 0 0 0 0 0 0 0 0 0 0 0 0 0 0 0 0 0 0 0 0 0 0 0 0 0 0 0 0 0 0 0 0 0 0 0 0 0 0 0 0 0 0 0 0 0 0 0 0 0 0 0 0 0 0 0 0 0 0 0 0 0 0 0 0 0 0 0 0 0 0 0 0 0 0 0 0 0 0 0 0 0 0 0 0 0 0 0 0 0 0 0 0 0 0 0 0 0 0 0 0 0 0 0 0 0 0 0 0 0 0 0 0 0 0 0 0 0 0 0 0 0 0 0 0 0 0 0 0 0 0 0 0 0 0 0 0 0 0 0 0 0 0 0 0 0 0 0 0 0 0 0 0 0 0 0 0 0 0 0 0 0 0 0 0 0 0 0 0 0 0 0 0 0 0 0 0 0 0 0 0 0 0 0 0 0 0 0 0 0 0 0 0 0 0 0 0 0 0 0 0 0 0 0 0 0 0 0 0 0 0 0 0 0 0 0 0 0 0 0 0 0 0 0 0 0 0 0 0 0 0 0 0 0 0 0 0 0 0 0 0 0 0 0 0 0 0 0 0 0 0 0 0 0 0 0 0 0 0 0 0 0 0 0 0 0 0 0 0 0 0 0 0 0 0 0 0 0 0 0 0 0 0 0 0 0 0 0 0 0 0 0 0 0 0 0 0 0 0 0 0 0 0 0 0 0 0 0 0 0 0 0 0 0 0 0 0 0 0 0 0 0 0 0 0 0 0 0 0 0 0 0 0 0 0 0 0 0 0 0 0 0 0 0 0 0 0 0 0 0 0 0 0 0 0 0 0 0 0 0 0 0 0 0 0 0 0 0 0 0 0 0 0 0 0 0 0 0 0 0 0 0 0 0 0 0 0 0 0 0 0 0 0 0 0 0 0 0 0 0 0 0 0 0 0 0 0 0 0 0 0 0 0 0 0 0 0 0 0 0 0 0 0 0 0 0 0 0 0 0 0 0 0 0 0 0 0 0 0 0 0 0 0 0 0 0 0 0 0 0 0 0 0 0 0 0 0 0 0 0 0 0 0 0 0 0 0 0 0 0 0 0 0 0 0 0 0 0 0 0 0 0 0 0 0 0 0 0 0 0 0 0 0 0 0 0 0 0 0 0 0 0 0 0 0 0 0 0 0 0 0 0 0 0 0 0 0 0 0 0 0 0 0 0 0 0 0 0 0 0 0 0 0 0 0 0 0 0 0 0 0 0 0 0 0 0 0 0 0 0 0 0 0 0 0 0 0 0 0 0 0 0 0 0 0 0 0 0 0 0 0 0 0 0 0 0 0 0 0 0 0 0 0 0 0 0 0 0 0 0 0 0 0 0 0 0 0 0 0 0 0 0 0 0 0 0 0 0 0 0 0 0 0 0 0 0 0 0 0 0 0 0 0 0 0 0 0 0 0 0 0 0 0 0 0 0 0 0 0 0 0 0 0 0 0 0 0 0 0 0 0 0 0 0 0 0 0 0 0 0 0 0 0 0 0 0 0 0 0 0 0 0 0 0 0 0 0 0 0 0 0 0 0 0 0 0 0 0 0 0 0 0 0 0 0 0 0 0 0 0 0 0 0 0 0 0 0 0 0 0 0 0 0 0 0 0 0 0 0 0 0 0 0 0 0 0 0 0 0 0 0 0 0 0 0 0 0 0 0 0 0 0 0 0 0 0 0 0 0 0 0 0 0 0 0 0 0 0 0 0 0 0 0 0 0 0 0 0 0 0 0 0 0 0 0 0 0 0 0 0 0 0 0 0 0 0 0 0 0 0 0 0 0 0 0 0 0 0 0 0 0 0 0 0 0 0 0 0 0 0 0 0 0 0 0 0 0 0 0 0 0 0 0 0 0 0 0 0 0 0 0 0 0 0 0 0 0 0 0 0 0 0 0 0 0 0 0 0 0 0 0 0 0 0 0 0 0 0 0 0 0 0 0 0 0 0 0 0 0 0 0 0 0 0 0 0 0 0 0 0 0 0 0 0 0 0 0 0 0 0 0 0 0 0 0 0 0 0 0 0 0 0 0 0 0 0 0 0 0 0 0 0 0 0 0 0 0 0 0 0 0 0 0 0 0 0 0 0 0 0 0 0 0 0 0 0 0 0 0 0 0 0 0 0 0 0 0 0 0 0 0 0 0 0 0 0 0 0 0 0 0 0 0 0 0 0 0 0 0 0 0 0 0 0 0 0 0 0 0 0 0 0 0 0 0 0 0 0 0 0 0 0 0 0 0 0 0 0 0 0 0 0 0 0 0 0 0 0 0 0 0 0 0 0 0 0 0 0 0 0 0 0 0 0 0 0 0 0 0 0 0 0 0 0 0 0 0 0 0 0 0 0 0 0 0 0 0 0 0 0 0 0 0 0 0 0 0 0 0 0 0 0 0 0 0 0 0 0 0 0 0 0 0 0 0 0 0 0 0 0 0 0 0 0 0 0 0 0 0 0 0 0 0 0 0 0 0 0 0 0 0 0 0 0 0 0 0 0 0 0 0 0 0 0 0 0 0 0 0 0 0 0 0 0 0 0 0 0 0 0 0 0 0 0 0 0 0 0 0 0 0 0 0 0 0 0 0 0 0 0 0 0 0 0 0 0 0 0 0 0 0 0 0 0 0 0 0 0 0 0 0 0 0 0 0 0 0 0 0 0 0 0 0 0 0 0 0 0 0 0 0 0 0 0 0 0 0 0 0 0 0 0 0 0 0 0 0 0 0 0 0 0 0 0 0 0 0 0 0 0 0 0 0 0 0 0 0 0 0 0 0 0 0 0 0 0 0 0 0 0 0 0 0 0 0 0 0 0 0 0 0 0 0 0 0 0 0 0 0 0 0 0 0 0 0 0 0 0 0 0 0 0 0 0 0 0 0 0 0 0 0 0 0 0 0 0 0 0 0 0 0 0 0 0 0 0 0 0 0 0 0 0 0 0 0 0 0 0 0 0 0 0 0 0 0 0 0 0 0 0 0 0 0 0 0 0 0 0 0 0 0 0 0 0 0 0 0 0 0 0 0 0 0 0 0 0 0 0 0 0 0 0 0 0 0 0 0 0 0 0 0 0 0 0 0 0 0 0 0 0 0 0 0 0 0 0 0 0 0 0 0 0 0 0 0 0 0 0 0 0 0 0 0 0 0 0 0 0 0 0 0 0 0 0 0 0 0 0 0 0 0 0 0 0 0 0 0 0 0 0 0 0 0 0 0 0 0 0 0 0 0 0 0 0 0 0 0 0 0 0 0 0 0 0 0 0 0 0 0 0 0 0 0 0 0 0 0 0 0 0 0 0 0 0 0 0 0 0 0 0 0 0 0 0 0 0 0 0 0 0 0 0 0 0 0 0 0 0 0 0 0 0 0 0 0 0 0 0 0 0 0 0 0 0 0 0 0 0 0 0 0 0 0 0 0 0 0 0 0 0 0 0 0 0 0 0 0 0 0 0 0 0 0 0 0 0 0 0 0 0 0 0 0 0 0 0 0 0 0 0 0 0 0 0 0 0 0 0 0 0 0 0 0 0 0 0 0 0 0 0 0 0 0 0 0 0 0 0 0 0 0 0 0 0 0 0 0 0 0 0 0 0 0 0 0 0 0 0 0 0 0 0 0 0 0 0 0 0 0 0 0 0 0 0 0 0 0 0 0 0 0 0 0 0 0 0 0 0 0 0 0 0 0 0 0 0 0 0 0 0 0 0 0 0 0 0 0 0 0 0 0 0 0 0 0 0 0 0 0 0 0 0 0 0 0 0 0 0 0 0 0 0 0 0 0 0 0 0 0 0 0 0 0 0 0 0 0 0 0 0 0 0 0 0 0 0 0 0 0 0 0 0 0 0 0 0 0 0 0 0 0 0 0 0 0 0 0 0 0 0 0 0 0 0 0 0 0 0 0 0 0 0 0 0 0 0 0 0 0 0 0 0 0 0 0 0 0 0 0 0 0 0 0 0 0 0 0 0 0 0 0 0 0 0 0 0 0 0 0 0 0 0 0 0 0 0 0 0 0 0 0 0 0 0 0 0 0 0 0 0 0 0 0 0 0 0 0 0 0 0 0 0 0 0 0 0 0 0 0 0 0 0 0 0 0 0 0 0 0 0 0 0 0 0 0 0 0 0 0 0 0 0 0 0 0 0 0 0 0 0 0 0 0 0 0 0 0 0 0 0 0 0 0 0 0 0 0 0 0 0 0 0 0 0 0 0 0 0 0 0 0 0 0 0 0 0 0 0 0 0 0 0 0 0 0 0 0 0 0 0 0 0 0 0 0 0 0 0 0 0 0 0 0 0 0 0 0 0 0 0 0 0 0 0 0 0 0 0 0 0 0 0 0 0 0 0 0 0 0 0 0 0 0 0 0 0 0 0 0 0 0 0 0 0 0 0 0 0 0 0 0 0 0 0 0 0 0 0 0 0 0 0 0 0 0 0 0 0 0 0 0 0 0 0 0 0 0 0 0 0 0 0 0 0 0 0 0 0 0 0 0 0 0 0 0 0 0 0 0 0 0 0 0 0 0 0 0 0 0 0 0 0 0 0 0 0 0 0 0 0 0 0 0 0 0 0 0 0 0 0 0 0 0 0 0 0 0 0 0 0 0 0 0 0 0 0 0 0 0 0 0 0 0 0 0 0 0 0 0 0 0 0 0 0 0 0 0 0 0 0 0 0 0 0 0 0 0 0 0 0 0 0 0 0 0 0 0 0 0 0 0 0 0 0 0 0 0 0 0 0 0 0 0 0 0 0 0 0 0 0 0 0 0 0 0 0 0 0 0 0 0 0 0 0 0 0 0 0 0 0 0 0 0 0 0 0 0 0 0 0 0 0 0 0 0 0 0 0 0 0 0 0 0 0 0 0 0 0 0 0 0 0 0 0 0 0 0 0 0 0 0 0 0 0 0 0 0 0 0 0 0 0 0 0 0 0 0 0 0 0 0 0 0 0 0 0 0 0 0 0 0 0 0 0 0 0 0 0 0 0 0 0 0 0 0 0 0 0 0 0 0 0 0 0 0 0 0 0 0 0 0 0 0 0 0 0 0 0 0 0 0 0 0 0 0 0 0 0 0 0 0 0 0 0 0 0 0 0 0 0 0 0 0 0 0 0 0 0 0 0 0 0 0 0 0 0 0 0 0 0 0 0 0 0 0 0 0 0 0 0 0 0 0 0 0 0 0 0 0 0 0 0 0 0 0 0 0 0 0 0 0 0 0 0 0 0 0 0 0 0 0 0 0 0 0 0 0 0 0 0 0 0 0 0 0 0 0 0 0 0 0 0 0 0 0 0 0 0 0 0 0 0 0 0 0 0 0 0 0 0 0 0 0 0 0 0 0 0 0 0 0 0 0 0 0 0 0 0 0 0 0 0 0 0 0 0 0 0 0 0 0 0 0 0 0 0 0 0 0 0 0 0 0 0 0 0 0 0 0 0 0 0 0 0 0 0 0 0 0 0 0 0 0 0 0 0 0 0 0 0 0 0 0 0 0 0 0 0 0 0 0 0 0 0 0 0 0 0 0 0 0 0 0 0 0 0 0 0 0 0 0 0 0 0 0 0 0 0 0 0 0 0 0 0 0 0 0 0 0 0 0 0 0 0 0 0 0 0 0 0 0 0 0 0 0 0 0 0 0 0 0 0 0 0 0 0 0 0 0 0 0 0 0 0 0 0 0 0 0 0 0 0 0 0 0 0 0 0 0 0 0 0 0 0 0 0 0 0 0 0 0 0 0 0 0 0 0 0 0 0 0 0 0 0 0 0 0 0 0 0 0 0 0 0 0 0 0 0 0 0 0 0 0 0 0 0 0 0 0 0 0 0 0 0 0 0 0 0 0 0 0 0 0 0 0 0 0 0 0 0 0 0 0 0 0 0 0 0 0 0 0 0 0 0 0 0 0 0 0 0 0 0 0 0 0 0 0 0 0 0 0 0 0 0 0 0 0 0 0 0 0 0 0 0 0 0 0 0 0 0 0 0 0 0 0 0 0 0 0 0 0 0 0 0 0 0 0 0 0 0 0 0 0 0 0 0 0 0 0 0 0 0 0 0 0 0 0 0 0 0 0 0 0 0 0 0 0 0 0 0 0 0 0 0 0 0 0 0 0 0 0 0 0 0 0 0 0 0 0 0 0 0 0 0 0 0 0 0 0 0 0 0 0 0 0 0 0 0 0 0 0 0 0 0 0 0 0 0 0 0 0 0 0 0 0 0 0 0 0 0 0 0 0 0 0 0 0 0 0 0 0 0 0 0 0 0 0 0 0 0 0 0 0 0 0 0 0 0 0 0 0 0 0 0 0 0 0 0 0 0 0 0 0 0 0 0 0 0 0 0 0 0 0 0 0 0 0 0 0 0 0 0 0 0 0 0 0 0 0 0 0 0 0 0 0 0 0 0 0 0 0 0 0 0 0 0 0 0 0 0 0 0 0 0 0 0 0 0 0 0 0 0 0 0 0 0 0 0 0 0 0 0 0 0 0 0 0 0 0 0 0 0 0 0 0 0 0 0 0 0 0 0 0 0 0 0 0 0 0 0 0 0 0 0 0 0 0 0 0 0 0 0 0 0 0 0 0 0 0 0 0 0 0 0 0 0 0 0 0 0 0 0 0 0 0 0 0 0 0 0 0 0 0 0 0 0 0 0 0 0 0 0 0 0 0 0 0 0 0 0 0 0 0 0 0 0 0 0 0 0 0 0 0 0 0 0 0 0 0 0 0 0 0 0 0 0 0 0 0 0 0 0 0 0 0 0 0 0 0 0 0 0 0 0 0 0 0 0 0 0 0 0 0 0 0 0 0 0 0 0 0 0 0 0 0 0 0 0 0 0 0 0 0 0 0 0 0 0 0 0 0 0 0 0 0 0 0 0 0 0 0 0 0 0 0 0 0 0 0 0 0 0 0 0 0 0 0 0 0 0 0 0 0 0 0 0 0 0 0 0 0 0 0 0 0 0 0 0 0 0 0 0 0 0 0 0 0 0 0 0 0 0 0 0 0 0 0 0 0 0 0 0 0 0 0 0 0 0 0 0 0 0 0 0 0 0 0 0 0 0 0 0 0 0 0 0 0 0 0 0 0 0 0 0 0 0 0 0 0 0 0 0 0 0 0 0 0 0 0 0 0 0 0 0 0 0 0 0 0 0 0 0 0 0 0 0 0 0 0 0 0 0 0 0 0 0 0 0 0 0 0 0 0 0 0 0 0 0 0 0 0 0 0 0 0 0 0 0 0 0 0 0 0 0 0 0 0 0 0 0 0 0 0 0 0 0 0 0 0 0 0 0 0 0 0 0 0 0 0 0 0 0 0 0 0 0 0 0 0 0 0 0 0 0 0 0 0 0 0 0 0 0 0 0 0 0 0 0 0 0 0 0 0 0 0 0 0 0 0 0 0 0 0 0 0 0 0 0 0 0 0 0 0 0 0 0 0 0 0 0 0 0 0 0 0 0 0 0 0 0 0 0 0 0 0 0 0 0 0 0 0 0 0 0 0 0 0 0 0 0 0 0 0 0 0 0 0 0 0 0 0 0 0 0 0 0 0 0 0 0 0 0 0 0 0 0 0 0 0 0 0 0 0 0 0 0 0 0 0 0 0 0 0 0 0 0 0 0 0 0 0 0 0 0 0 0 0 0 0 0 0 0 0 0 0 0 0 0 0 0 0 0 0 0 0 0 0 0 0 0 0 0 0 0 0 0 0 0 0 0 0 0 0 0 0 0 0 0 0 0 0 0 0 0 0 0 0 0 0 0 0 0 0 0 0 0 0 0 0 0 0 0 0 0 0 0 0 0 0 0 0 0 0 0 0 0 0 0 0 0 0 0 0 0 0 0 0 0 0 0 0 0 0 0 0 0 0 0 0 0 0 0 0 0 0 0 0 0 0 0 0 0 0 0 0 0 0 0 0 0 0 0 0 0 0 0 0 0 0 0 0 0 0 0 0 0 0 0 0 0 0 0 0 0 0 0 0 0 0 0 0 0 0 0 0 0 0 0 0 0 0 0 0 0 0 0 0 0 0 0 0 0 0 0 0 0 0 0 0 0 0 0 0 0 0 0 0 0 0 0 0 0 0 0 0 0 0 0 0 0 0 0 0 0 0 0 0 0 0 0 0 0 0 0 0 0 0 0 0 0 0 0 0 0 0 0 0 0 0 0 0 0 0 0 0 0 0 0 0 0 0 0 0 0 0 0 0 0 0 0 0 0 0 0 0 0 0 0 0 0 0 0 0 0 0 0 0 0 0 0 0 0 0 0 0 0 0 0 0 0 0 0 0 0 0 0 0 0 0 0 0 0 0 0 0 0 0 0 0 0 0 0 0 0 0 0 0 0 0 0 0 0 0 0 0 0 0 0 0 0 0 0 0 0 0 0 0 0 0 0 0 0 0 0 0 0 0 0 0 0 0 0 0 0 0 0 0 0 0 0 0 0 0 0 0 0 0 0 0 0 0 0 0 0 0 0 0 0 0 0 0 0 0 0 0 0 0 0 0 0 0 0 0 0 0 0 0 0 0 0 0 0 0 0 0 0 0 0 0 0 0 0 0 0 0 0 0 0 0 0 0 0 0 0 0 0 0 0 0 0 0 0 0 0 0 0 0 0 0 0 0 0 0 0 0 0 0 0 0 0 0 0 0 0 0 0 0 0 0 0 0 0 0 0 0 0 0 0 0 0 0 0 0 0 0 0 0 0 0 0 0 0 0 0 0 0 0 0 0 0 0 0 0 0 0 0 0 0 0 0 0 0 0 0 0 0 0 0 0 0 0 0 0 0 0 0 0 0 0 0 0 0 0 0 0 0 0 0 0 0 0 0 0 0 0 0 0 0 0 0 0 0 0 0 0 0 0 0 0 0 0 0 0 0 0 0 0 0 0 0 0 0 0 0 0 0 0 0 0 0 0 0 0 0 0 0 0 0 0 0 0 0 0 0 0 0 0 0 0 0 0 0 0 0 0 0 0 0 0 0 0 0 0 0 0 0 0 0 0 0 0 0 0 0 0 0 0 0 0 0 0 0 0 0 0 0 0 0 0 0 0 0 0 0 0 0 0 0 0 0 0 0 0 0 0 0 0 0 0 0 0 0 0 0 0 0 0 0 0 0 0 0 0 0 0 0 0 0 0 0 0 0 0 0 0 0 0 0 0 0 0 0 0 0 0 0 0 0 0 0 0 0 0 0 0 0 0 0 0 0 0 0 0 0 0 0 0 0 0 0 0 0 0 0 0 0 0 0 0 0 0 0 0 0 0 0 0 0 0 0 0 0 0 0 0 0 0 0 0 0 0 0 0 0 0 0 0 0 0 0 0 0 0 0 0 0 0 0 0 0 0 0 0 0 0 0 0 0 0 0 0 0 0 0 0 0 0 0 0 0 0 0 0 0 0 0 0 0 0 0 0 0 0 0 0 0 0 0 0 0 0 0 0 0 0 0 0 0 0 0 0 0 0 0 0 0 0 0 0 0 0 0 0 0 0 0 0 0 0 0 0 0 0 0 0 0 0 0 0 0 0 0 0 0 0 0 0 0 0 0 0 0 0 0 0 0 0 0 0 0 0 0 0 0 0 0 0 0 0 0 0 0 0 0 0 0 0 0 0 0 0 0 0 0 0 0 0 0 0 0 0 0 0 0 0 0 0 0 0 0 0 0 0 0 0 0 0 0 0 0 0 0 0 0 0 0 0 0 0 0 0 0 0 0 0 0 0 0 0 0 0 0 0 0 0 0 0 0 0 0 0 0 0 0 0 0 0 0 0 0 0 0 0 0 0 0 0 0 0 0 0 0 0 0 0 0 0 0 0 0 0 0 0 0 0 0 0 0 0 0 0 0 0 0 0 0 0 0 0 0 0 0 0 0 0 0 0 0 0 0 0 0 0 0 0 0 0 0 0 0 0 0 0 0 0 0 0 0 0 0 0 0 0 0 0 0 0 0 0 0 0 0 0 0 0 0 0 0 0 0 0 0 0 0 0 0 0 0 0 0 0 0 0 0 0 0 0 0 0 0 0 0 0 0 0 0 0 0 0 0 0 0 0 0 0 0 0 0 0 0 0 0 0 0 0 0 0 0 0 0 0 0 0 0 0 0 0 0 0 0 0 0 0 0 0 0 0 0 0 0 0 0 0 0 0 0 0 0 0 0 0 0 0 0 0 0 0 0 0 0 0 0 0 0 0 0 0 0 0 0 0 0 0 0 0 0 0 0 0 0 0 0 0 0 0 0 0 0 0 0 0 0 0 0 0 0 0 0 0 0 0 0 0 0 0 0 0 0 0 0 0 0 0 0 0 0 0 0 0 0 0 0 0 0 0 0 0 0 0 0 0 0 0 0 0 0 0 0 0 0 0 0 0 0 0 0 0 0 0 0 0 0 0 0 0 0 0 0 0 0 0 0 0 0 0 0 0 0 0 0 0 0 0 0 0 0 0 0 0 0 0 0 0 0 0 0 0 0 0 0 0 0 0 0 0 0 0 0 0 0 0 0 0 0 0 0 0 0 0 0 0 0 0 0 0 0 0 0 0 0 0 0 0 0 0 0 0 0 0 0 0 0 0 0 0 0 0 0 0 0 0 0 0 0 0 0 0 0 0 0 0 0 0 0 0 0 0 0 0 0 0 0 0 0 0 0 0 0 0 0 0 0 0 0 0 0 0 0 0 0 0 0 0 0 0 0 0 0 0 0 0 0 0 0 0 0 0 0 0 0 0 0 0 0 0 0 0 0 0 0 0 0 0 0 0 0 0 0 0 0 0 0 0 0 0 0 0 0 0 0 0 0 0 0 0 0 0 0 0 0 0 0 0 0 0 0 0 0 0 0 0 0 0 0 0 0 0 0 0 0 0 0 0 0 0 0 0 0 0 0 0 0 0 0 0 0 0 0 0 0 0 0 0 0 0 0 0 0 0 0 0 0 0 0 0 0 0 0 0 0 0 0 0 0 0 0 0 0 0 0 0 0 0 0 0 0 0 0 0 0 0 0 0 0 0 0 0 0 0 0 0 0 0 0 0 0 0 0 0 0 0 0 0 0 0 0 0 0 0 0 0 0 0 0 0 0 0 0 0 0 0 0 0 0 0 0 0 0 0 0 0 0 0 0 0 0 0 0 0 0 0 0 0 0 0 0 0 0 0 0 0 0 0 0 0 0 0 0 0 0 0 0 0 0 0 0 0 0 0 0 0 0 0 0 0 0 0 0 0 0 0 0 0 0 0 0 0 0 0 0 0 0 0 0 0 0 0 0 0 0 0 0 0 0 0 0 0 0 0 0 0 0 0 0 0 0 0 0 0 0 0 0 0 0 0 0 0 0 0 0 0 0 0 0 0 0 0 0 0 0 0 0 0 0 0 0 0 0 0 0 0 0 0 0 0 0 0 0 0 0 0 0 0 0 0 0 0 0 0 0 0 0 0 0 0 0 0 0 0 0 0 0 0 0 0 0 0 0 0 0 0 0 0 0 0 0 0 0 0 0 0 0 0 0 0 0 0 0 0 0 0 0 0 0 0 0 0 0 0 0 0 0 0 0 0 0 0 0 0 0 0 0 0 0 0 0 0 0 0 0 0 0 0 0 0 0 0 0 0 0 0 0 0 0 0 0 0 0 0 0 0 0 0 0 0 0 0 0 0 0 0 0 0 0 0 0 0 0 0 0 0 0 0 0 0 0 0 0 0 0 0 0 0 0 0 0 0 0 0 0 0 0 0 0 0 0 0 0 0 0 0 0 0 0 0 0 0 0 0 0 0 0 0 0 0 0 0 0 0 0 0 0 0 0 0 0 0 0 0 0 0 0 0 0 0 0 0 0 0 0 0 0 0 0 0 0 0 0 0 0 0 0 0 0 0 0 0 0 0 0 0 0 0 0 0 0 0 0 0 0 0 0 0 0 0 0 0 0 0 0 0 0 0 0 0 0 0 0 0 0 0 0 0 0 0 0 0 0 0 0 0 0 0 0 0 0 0 0 0 0 0 0 0 0 0 0 0 0 0 0 0 0 0 0 0 0 0 0 0 0 0 0 0 0 0 0 0 0 0 0 0 0 0 0 0 0 0 0 0 0 0 0 0 0 0 0 0 0 0 0 0 0 0 0 0 0 0 0 0 0 0 0 0 0 0 0 0 0 0 0 0 0 0 0 0 0 0 0 0 0 0 0 0 0 0 0 0 0 0 0 0 0 0 0 0 0 0 0 0 0 0 0 0 0 0 0 0 0 0 0 0 0 0 0 0 0 0 0 0 0 0 0 0 0 0 0 0 0 0 0 0 0 0 0 0 0 0 0 0 0 0 0 0 0 0 0 0 0 0 0 0 0 0 0 0 0 0 0 0 0 0 0 0 0 0 0 0 0 0 0 0 0 0 0 0 0 0 0 0 0 0 0 0 0 0 0 0 0 0 0 0 0 0 0 0 0 0 0 0 0 0 0 0 0 0 0 0 0 0 0 0 0 0 0 0 0 0 0 0 0 0 0 0 0 0 0 0 0 0 0 0 0 0 0 0 0 0 0 0 0 0 0 0 0 0 0 0 0 0 0 0 0 0 0 0 0 0 0 0 0 0 0 0 0 0 0 0 0 0 0 0 0 0 0 0 0 0 0 0 0 0 0 0 0 0 0 0 0 0 0 0 0 0 0 0 0 0 0 0 0 0 0 0 0 0 0 0 0 0 0 0 0 0 0 0 0 0 0 0 0 0 0 0 0 0 0 0 0 0 0 0 0 0 0 0 0 0 0 0 0 0 0 0 0 0 0 0 0 0 0 0 0 0 0 0 0 0 0 0 0 0 0 0 0 0 0 0 0 0 0 0 0 0 0 0 0 0 0 0 0 0 0 0 0 0 0 0 0 0 0 0 0 0 0 0 0 0 0 0 0 0 0 0 0 0 0 0 0 0 0 0 0 0 0 0 0 0 0 0 0 0 0 0 0 0 0 0 0 0 0 0 0 0 0 0 0 0 0 0 0 0 0 0 0 0 0 0 0 0 0 0 0 0 0 0 0 0 0 0 0 0 0 0 0 0 0 0 0 0 0 0 0 0 0 0 0 0 0 0 0 0 0 0 0 0 0 0 0 0 0 0 0 0 0 0 0 0 0 0 0 0 0 0 0 0 0 0 0 0 0 0 0 0 0 0 0 0 0 0 0 0 0 0 0 0 0 0 0 0 0 0 0 0 0 0 0 0 0 0 0 0 0 0 0 0 0 0 0 0 0 0 0 0 0 0 0 0 0 0 0 0 0 0 0 0 0 0 0 0 0 0 0 0 0 0 0 0 0 0 0 0 0 0 0 0 0 0 0 0 0 0 0 0 0 0 0 0 0 0 0 0 0 0 0 0 0 0 0 0 0 0 0 0 0 0 0 0 0 0 0 0 0 0 0 0 0 0 0 0 0 0 0 0 0 0 0 0 0 0 0 0 0 0 0 0 0 0 0 0 0 0 0 0 0 0 0 0 0 0 0 0 0 0 0 0 0 0 0 0 0 0 0 0 0 0 0 0 0 0 0 0 0 0 0 0 0 0 0 0 0 0 0 0 0 0 0 0 0 0 0 0 0 0 0 0 0 0 0 0 0 0 0 0 0 0 0 0 0 0 0 0 0 0 0 0 0 0 0 0 0 0 0 0 0 0 0 0 0 0 0 0 0 0 0 0 0 0 0 0 0 0 0 0 0 0 0 0 0 0 0 0 0 0 0 0 0 0 0 0 0 0 0 0 0 0 0 0 0 0 0 0 0 0 0 0 0 0 0 0 0 0 0 0 0 0 0 0 0 0 0 0 0 0 0 0 0 0 0 0 0 0 0 0 0 0 0 0 0 0 0 0 0 0 0 0 0 0 0 0 0 0 0 0 0 0 0 0 0 0 0 0 0 0 0 0 0 0 0 0 0 0 0 0 0 0 0 0 0 0 0 0 0 0 0 0 0 0 0 0 0 0 0 0 0 0 0 0 0 0 0 0 0 0 0 0 0 0 0 0 0 0 0 0 0 0 0 0 0 0 0 0 0 0 0 0 0 0 0 0 0 0 0 0 0 0 0 0 0 0 0 0 0 0 0 0 0 0 0 0 0 0 0 0 0 0 0 0 0 0 0 0 0 0 0 0 0 0 0 0 0 0 0 0 0 0 0 0 0 0 0 0 0 0 0 0 0 0 0 0 0 0 0 0 0 0 0 0 0 0 0 0 0 0 0 0 0 0 0 0 0 0 0 0 0 0 0 0 0 0 0 0 0 0 0 0 0 0 0 0 0 0 0 0 0 0 0 0 0 0 0 0 0 0 0 0 0 0 0 0 0 0 0 0 0 0 0 0 0 0 0 0 0 0 0 0 0 0 0 0 0 0 0 0 0 0 0 0 0 0 0 0 0 0 0 0 0 0 0 0 0 0 0 0 0 0 0 0 0 0 0 0 0 0 0 0 0 0 0 0 0 0 0 0 0 0 0 0 0 0 0 0 0 0 0 0 0 0 0 0 0 0 0 0 0 0 0 0 0 0 0 0 0 0 0 0 0 0 0 0 0 0 0 0 0 0 0 0 0 0 0 0 0 0 0 0 0 0 0 0 0 0 0 0 0 0 0 0 0 0 0 0 0 0 0 0 0 0 0 0 0 0 0 0 0 0 0 0 0 0 0 0 0 0 0 0 0 0 0 0 0 0 0 0 0 0 0 0 0 0 0 0 0 0 0 0 0 0 0 0 0 0 0 0 0 0 0 0 0 0 0 0 0 0 0 0 0 0 0 0 0 0 0 0 0 0 0 0 0 0 0 0 0 0 0 0 0 0 0 0 0 0 0 0 0 0 0 0 0 0 0 0 0 0 0 0 0 0 0 0 0 0 0 0 0 0 0 0 0 0 0 0 0 0 0 0 0 0 0 0 0 0 0 0 0 0 0 0 0 0 0 0 0 0 0 0 0 0 0 0 0 0 0 0 0 0 0 0 0 0 0 0 0 0 0 0 0 0 0 0 0 0 0 0 0 0 0 0 0 0 0 0 0 0 0 0 0 0 0 0 0 0 0 0 0 0 0 0 0 0 0 0 0 0 0 0 0 0 0 0 0 0 0 0 0 0 0 0 0 0 0 0 0 0 0 0 0 0 0 0 0 0 0 0 0 0 0 0 0 0 0 0 0 0 0 0 0 0 0 0 0 0 0 0 0 0 0 0 0 0 0 0 0 0 0 0 0 0 0 0 0 0 0 0 0 0 0 0 0 0 0 0 0 0 0 0 0 0 0 0 0 0 0 0 0 0 0 0 0 0 0 0 0 0 0 0 0 0 0 0 0 0 0 0 0 0 0 0 0 0 0 0 0 0 0 0 0 0 0 0 0 0 0 0 0 0 0 0 0 0 0 0 0 0 0 0 0 0 0 0 0 0 0 0 0 0 0 0 0 0 0 0 0 0 0 0 0 0 0 0 0 0 0 0 0 0 0 0 0 0 0 0 0 0 0 0 0 0 0 0 0 0 0 0 0 0 0 0 0 0 0 0 0 0 0 0 0 0 0 0 0 0 0 0 0 0 0 0 0 0 0 0 0 0 0 0 0 0 0 0 0 0 0 0 0 0 0 0 0 0 0 0 0 0 0 0 0 0 0 0 0 0 0 0 0 0 0 0 0 0 0 0 0 0 0 0 0 0 0 0 0 0 0 0 0 0 0 0 0 0 0 0 0 0 0 0 0 0 0 0 0 0 0 0 0 0 0 0 0 0 0 0 0 0 0 0 0 0 0 0 0 0 0 0 0 0 0 0 0 0 0 0 0 0 0 0 0 0 0 0 0 0 0 0 0 0 0 0 0 0 0 0 0 0 0 0 0 0 0 0 0 0 0 0 0 0 0 0 0 0 0 0 0 0 0 0 0 0 0 0 0 0 0 0 0 0 0 0 0 0 0 0 0 0 0 0 0 0 0 0 0 0 0 0 0 0 0 0 0 0 0 0 0 0 0 0 0 0 0 0 0 0 0 0 0 0 0 0 0 0 0 0 0 0 0 0 0 0 0 0 0 0 0 0 0 0 0 0 0 0 0 0 0 0 0 0 0 0 0 0 0 0 0 0 0 0 0 0 0 0 0 0 0 0 0 0 0 0 0 0 0 0 0 0 0 0 0 0 0 0 0 0 0 0 0 0 0 0 0 0 0 0 0 0 0 0 0 0 0 0 0 0 0 0 0 0 0 0 0 0 0 0 0 0 0 0 0 0 0 0 0 0 0 0 0 0 0 0 0 0 0 0 0 0 0 0 0 0 0 0 0 0 0 0 0 0 0 0 0 0 0 0 0 0 0 0 0 0 0 0 0 0 0 0 0 0 0 0 0 0 0 0 0 0 0 0 0 0 0 0 0 0 0 0 0 0 0 0 0 0 0 0 0 0 0 0 0 0 0 0 0 0 0 0 0 0 0 0 0 0 0 0 0 0 0 0 0 0 0 0 0 0 0 0 0 0 0 0 0 0 0 0 0 0 0 0 0 0 0 0 0 0 0 0 0 0 0 0 0 0 0 0 0 0 0 0 0 0 0 0 0 0 0 0 0 0 0 0 0 0 0 0 0 0 0 0 0 0 0 0 0 0 0 0 0 0 0 0 0 0 0 0 0 0 0 0 0 0 0 0 0 0 0 0 0 0 0 0 0 0 0 0 0 0 0 0 0 0 0 0 0 0 0 0 0 0 0 0 0 0 0 0 0 0 0 0 0 0 0 0 0 0 0 0 0 0 0 0 0 0 0 0 0 0 0 0 0 0 0 0 0 0 0 0 0 0 0 0 0 0 0 0 0 0 0 0 0 0 0 0 0 0 0 0 0 0 0 0 0 0 0 0 0 0 0 0 0 0 0 0 0 0 0 0 0 0 0 0 0 0 0 0 0 0 0 0 0 0 0 0 0 0 0 0 0 0 0 0 0 0 0 0 0 0 0 0 0 0 0 0 0 0 0 0 0 0 0 0 0 0 0 0 0 0 0 0 0 0 0 0 0 0 0 0 0 0 0 0 0 0 0 0 0 0 0 0 0 0 0 0 0 0 0 0 0 0 0 0 0 0 0 0 0 0 0 0 0 0 0 0 0 0 0 0 0 0 0 0 0 0 0 0 0 0 0 0 0 0 0 0 0 0 0 0 0 0 0 0 0 0 0 0 0 0 0 0 0 0 0 0 0 0 0 0 0 0 0 0 0 0 0 0 0 0 0 0 0 0 0 0 0 0 0 0 0 0 0 0 0 0 0 0 0 0 0 0 0 0 0 0 0 0 0 0 0 0 0 0 0 0 0 0 0 0 0 0 0 0 0 0 0 0 0 0 0 0 0 0 0 0 0 0 0 0 0 0 0 0 0 0 0 0 0 0 0 0 0 0 0 0 0 0 0 0 0 0 0 0 0 0 0 0 0 0 0 0 0 0 0 0 0 0 0 0 0 0 0 0 0 0 0 0 0 0 0 0 0 0 0 0 0 0 0 0 0 0 0 0 0 0 0 0 0 0 0 0 0 0 0 0 0 0 0 0 0 0 0 0 0 0 0 0 0 0 0 0 0 0 0 0 0 0 0 0 0 0 0 0 0 0 0 0 0 0 0 0 0 0 0 0 0 0 0 0 0 0 0 0 0 0 0 0 0 0 0 0 0 0 0 0 0 0 0 0 0 0 0 0 0 0 0 0 0 0 0 0 0 0 0 0 0 0 0 0 0 0 0 0 0 0 0 0 0 0 0 0 0 0 0 0 0 0 0 0 0 0 0 0 0 0 0 0 0 0 0 0 0 0 0 0 0 0 0 0 0 0 0 0 0 0 0 0 0 0 0 0 0 0 0 0 0 0 0 0 0 0 0 0 0 0 0 0 0 0 0 0 0 0 0 0 0 0 0 0 0 0 0 0 0 0 0 0 0 0 0 0 0 0 0 0 0 0 0 0 0 0 0 0 0 0 0 0 0 0 0 0 0 0 0 0 0 0 0 0 0 0 0 0 0 0 0 0 0 0 0 0 0 0 0 0 0 0 0 0 0 0 0 0 0 0 0 0 0 0 0 0 0 0 0 0 0 0 0 0 0 0 0 0 0 0 0 0 0 0 0 0 0 0 0 0 0 0 0 0 0 0 0 0 0 0 0 0 0 0 0 0 0 0 0 0 0 0 0 0 0 0 0 0 0 0 0 0 0 0 0 0 0 0 0 0 0 0 0 0 0 0 0 0 0 0 0 0 0 0 0 0 0 0 0 0 0 0 0 0 0 0 0 0 0 0 0 0 0 0 0 0 0 0 0 0 0 0 0 0 0 0 0 0 0 0 0 0 0 0 0 0 0 0 0 0 0 0 0 0 0 0 0 0 0 0 0 0 0 0 0 0 0 0 0 0 0 0 0 0 0 0 0 0 0 0 0 0 0 0 0 0 0 0 0 0 0 0 0 0 0 0 0 0 0 0 0 0 0 0 0 0 0 0 0 0 0 0 0 0 0 0 0 0 0 0 0 0 0 0 0 0 0 0 0 0 0 0 0 0 0 0 0 0 0 0 0 0 0 0 0 0 0 0 0 0 0 0 0 0 0 0 0 0 0 0 0 0 0 0 0 0 0 0 0 0 0 0 0 0 0 0 0 0 0 0 0 0 0 0 0 0 0 0 0 0 0 0 0 0 0 0 0 0 0 0 0 0 0 0 0 0 0 0 0 0 0 0 0 0 0 0 0 0 0 0 0 0 0 0 0 0 0 0 0 0 0 0 0 0 0 0 0 0 0 0 0 0 0 0 0 0 0 0 0 0 0 0 0 0 0 0 0 0 0 0 0 0 0 0 0 0 0 0 0 0 0 0 0 0 0 0 0 0 0 0 0 0 0 0 0 0 0 0 0 0 0 0 0 0 0 0 0 0 0 0 0 0 0 0 0 0 0 0 0 0 0 0 0 0 0 0 0 0 0 0 0 0 0 0 0 0 0 0 0 0 0 0 0 0 0 0 0 0 0 0 0 0 0 0 0 0 0 0 0 0 0 0 0 0 0 0 0 0 0 0 0 0 0 0 0 0 0 0 0 0 0 0 0 0 0 0 0 0 0 0 0 0 0 0 0 0 0 0 0 0 0 0 0 0 0 0 0 0 0 0 0 0 0 0 0 0 0 0 0 0 0 0 0 0 0 0 0 0 0 0 0 0 0 0 0 0 0 0 0 0 0 0 0 0 0 0 0 0 0 0 0 0 0 0 0 0 0 0 0 0 0 0 0 0 0 0 0 0 0 0 0 0 0 0 0 0 0 0 0 0 0 0 0 0 0 0 0 0 0 0 0 0 0 0 0 0 0 0 0 0 0 0 0 0 0 0 0 0 0 0 0 0 0 0 0 0 0 0 0 0 0 0 0 0 0 0 0 0 0 0 0 0 0 0 0 0 0 0 0 0 0 0 0 0 0 0 0 0 0 0 0 0 0 0 0 0 0 0 0 0 0 0 0 0 0 0 0 0 0 0 0 0 0 0 0 0 0 0 0 0 0 0 0 0 0 0 0 0 0 0 0 0 0 0 0 0 0 0 0 0 0 0 0 0 0 0 0 0 0 0 0 0 0 0 0 0 0 0 0 0 0 0 0 0 0 0 0 0 0 0 0 0 0 0 0 0 0 0 0 0 0 0 0 0 0 0 0 0 0 0 0 0 0 0 0 0 0 0 0 0 0 0 0 0 0 0 0 0 0 0 0 0 0 0 0 0 0 0 0 0 0 0 0 0 0 0 0 0 0 0 0 0 0 0 0 0 0 0 0 0 0 0 0 0 0 0 0 0 0 0 0 0 0 0 0 0 0 0 0 0 0 0 0 0 0 0 0 0 0 0 0 0 0 0 0 0 0 0 0 0 0 0 0 0 0 0 0 0 0 0 0 0 0 0 0 0 0 0 0 0 0 0 0 0 0 0 0 0 0 0 0 0 0 0 0 0 0 0 0 0 0 0 0 0 0 0 0 0 0 0 0 0 0 0 0 0 0 0 0 0 0 0 0 0 0 0 0 0 0 0 0 0 0 0 0 0 0 0 0 0 0 0 0 0 0 0 0 0 0 0 0 0 0 0 0 0 0 0 0 0 0 0 0 0 0 0 0 0 0 0 0 0 0 0 0 0 0 0 0 0 0 0 0 0 0 0 0 0 0 0 0 0 0 0 0 0 0 0 0 0 0 0 0 0 0 0 0 0 0 0 0 0 0 0 0 0 0 0 0 0 0 0 0 0 0 0 0 0 0 0 0 0 0 0 0 0 0 0 0 0 0 0 0 0 0 0 0 0 0 0 0 0 0 0 0 0 0 0 0 0 0 0 0 0 0 0 0 0 0 0 0 0 0 0 0 0 0 0 0 0 0 0 0 0 0 0 0 0 0 0 0 0 0 0 0 0 0 0 0 0 0 0 0 0 0 0 0 0 0 0 0 0 0 0 0 0 0 0 0 0 0 0 0 0 0 0 0 0 0 0 0 0 0 0 0 0 0 0 0 0 0 0 0 0 0 0 0 0 0 0 0 0 0 0 0 0 0 0 0 0 0 0 0 0 0 0 0 0 0 0 0 0 0 0 0 0 0 0 0 0 0 0 0 0 0 0 0 0 0 0 0 0 0 0 0 0 0 0 0 0 0 0 0 0 0 0 0 0 0 0 0 0 0 0 0 0 0 0 0 0 0 0 0 0 0 0 0 0 0 0 0 0 0 0 0 0 0 0 0 0 0 0 0 0 0 0 0 0 0 0 0 0 0 0 0 0 0 0 0 0 0 0 0 0 0 0 0 0 0 0 0 0 0 0 0 0 0 0 0 0 0 0 0 0 0 0 0 0 0 0 0 0 0 0 0 0 0 0 0 0 0 0 0 0 0 0 0 0 0 0 0 0 0 0 0 0 0 0 0 0 0 0 0 0 0 0 0 0 0 0 0 0 0 0 0 0 0 0 0 0 0 0 0 0 0 0 0 0 0 0 0 0 0 0 0 0 0 0 0 0 0 0 0 0 0 0 0 0 0 0 0 0 0 0 0 0 0 0 0 0 0 0 0 0 0 0 0 0 0 0 0 0 0 0 0 0 0 0 0 0 0 0 0 0 0 0 0 0 0 0 0 0 0 0 0 0 0 0 0 0 0 0 0 0 0 0 0 0 0 0 0 0 0 0 0 0 0 0 0 0 0 0 0 0 0 0 0 0 0 0 0 0 0 0 0 0 0 0 0 0 0 0 0 0 0 0 0 0 0 0 0 0 0 0 0 0 0 0 0 0 0 0 0 0 0 0 0 0 0 0 0 0 0 0 0 0 0 0 0 0 0 0 0 0 0 0 0 0 0 0 0 0 0 0 0 0 0 0 0 0 0 0 0 0 0 0 0 0 0 0 0 0 0 0 0 0 0 0 0 0 0 0 0 0 0 0 0 0 0 0 0 0 0 0 0 0 0 0 0 0 0 0 0 0 0 0 0 0 0 0 0 0 0 0 0 0 0 0 0 0 0 0 0 0 0 0 0 0 0 0 0 0 0 0 0 0 0 0 0 0 0 0 0 0 0 0 0 0 0 0 0 0 0 0 0 0 0 0 0 0 0 0 0 0 0 0 0 0 0 0 0 0 0 0 0 0 0 0 0 0 0 0 0 0 0 0 0 0 0 0 0 0 0 0 0 0 0 0 0 0 0 0 0 0 0 0 0 0 0 0 0 0 0 0 0 0 0 0 0 0 0 0 0 0 0 0 0 0 0 0 0 0 0 0 0 0 0 0 0 0 0 0 0 0 0 0 0 0 0 0 0 0 0 0 0 0 0 0 0 0 0 0 0 0 0 0 0 0 0 0 0 0 0 0 0 0 0 0 0 0 0 0 0 0 0 0 0 0 0 0 0 0 0 0 0 0 0 0 0 0 0 0 0 0 0 0 0 0 0 0 0 0 0 0 0 0 0 0 0 0 0 0 0 0 0 0 0 0 0 0 0 0 0 0 0 0 0 0 0 0 0 0 0 0 0 0 0 0 0 0 0 0 0 0 0 0 0 0 0 0 0 0 0 0 0 0 0 0 0 0 0 0 0 0 0 0 0 0 0 0 0 0 0 0 0 0 0 0 0 0 0 0 0 0 0 0 0 0 0 0 0 0 0 0 0 0 0 0 0 0 0 0 0 0 0 0 0 0 0 0 0 0 0 0 0 0 0 0 0 0 0 0 0 0 0 0 0 0 0 0 0 0 0 0 0 0 0 0 0 0 0 0 0 0 0 0 0 0 0 0 0 0 0 0 0 0 0 0 0 0 0 0 0 0 0 0 0 0 0 0 0 0 0 0 0 0 0 0 0 0 0 0 0 0 0 0 0 0 0 0 0 0 0 0 0 0 0 0 0 0 0 0 0 0 0 0 0 0 0 0 0 0 0 0 0 0 0 0 0 0 0 0 0 0 0 0 0 0 0 0 0 0 0 0 0 0 0 0 0 0 0 0 0 0 0 0 0 0 0 0 0 0 0 0 0 0 0 0 0 0 0 0 0 0 0 0 0 0 0 0 0 0 0 0 0 0 0 0 0 0 0 0 0 0 0 0 0 0 0 0 0 0 0 0 0 0 0 0 0 0 0 0 0 0 0 0 0 0 0 0 0 0 0 0 0 0 0 0 0 0 0 0 0 0 0 0 0 0 0 0 0 0 0 0 0 0 0 0 0 0 0 0 0 0 0 0 0 0 0 0 0 0 0 0 0 0 0 0 0 0 0 0 0 0 0 0 0 0 0 0 0 0 0 0 0 0 0 0 0 0 0 0 0 0 0 0 0 0 0 0 0 0 0 0 0 0 0 0 0 0 0 0 0 0 0 0 0 0 0 0 0 0 0 0 0 0 0 0 0 0 0 0 0 0 0 0 0 0 0 0 0 0 0 0 0 0 0 0 0 0 0 0 0 0 0 0 0 0 0 0 0 0 0 0 0 0 0 0 0 0 0 0 0 0 0 0 0 0 0 0 0 0 0 0 0 0 0 0 0 0 0 0 0 0 0 0 0 0 0 0 0 0 0 0 0 0 0 0 0 0 0 0 0 0 0 0 0 0 0 0 0 0 0 0 0 0 0 0 0 0 0 0 0 0 0 0 0 0 0 0 0 0 0 0 0 0 0 0 0 0 0 0 0 0 0 0 0 0 0 0 0 0 0 0 0 0 0 0 0 0 0 0 0 0 0 0 0 0 0 0 0 0 0 0 0 0 0 0 0 0 0 0 0 0 0 0 0 0 0 0 0 0 0 0 0 0 0 0 0 0 0 0 0 0 0 0 0 0 0 0 0 0 0 0 0 0 0 0 0 0 0 0 0 0 0 0 0 0 0 0 0 0 0 0 0 0 0 0 0 0 0 0 0 0 0 0 0 0 0 0 0 0 0 0 0 0 0 0 0 0 0 0 0 0 0 0 0 0 0 0 0 0 0 0 0 0 0 0 0 0 0 0 0 0 0 0 0 0 0 0 0 0 0 0 0 0 0 0 0 0 0 0 0 0 0 0 0 0 0 0 0 0 0 0 0 0 0 0 0 0 0 0 0 0 0 0 0 0 0 0 0 0 0 0 0 0 0 0 0 0 0 0 0 0 0 0 0 0 0 0 0 0 0 0 0 0 0 0 0 0 0 0 0 0 0 0 0 0 0 0 0 0 0 0 0 0 0 0 0 0 0 0 0 0 0 0 0 0 0 0 0 0 0 0 0 0 0 0 0 0 0 0 0 0 0 0 0 0 0 0 0 0 0 0 0 0 0 0 0 0 0 0 0 0 0 0 0 0 0 0 0 0 0 0 0 0 0 0 0 0 0 0 0 0 0 0 0 0 0 0 0 0 0 0 0 0 0 0 0 0 0 0 0 0 0 0 0 0 0 0 0 0 0 0 0 0 0 0 0 0 0 0 0 0 0 0 0 0 0 0 0 0 0 0 0 0 0 0 0 0 0 0 0 0 0 0 0 0 0 0 0 0 0 0 0 0 0 0 0 0 0 0 0 0 0 0 0 0 0 0 0 0 0 0 0 0 0 0 0 0 0 0 0 0 0 0 0 0 0 0 0 0 0 0 0 0 0 0 0 0 0 0 0 0 0 0 0 0 0 0 0 0 0 0 0 0 0 0 0 0 0 0 0 0 0 0 0 0 0 0 0 0 0 0 0 0 0 0 0 0 0 0 0 0 0 0 0 0 0 0 0 0 0 0 0 0 0 0 0 0 0 0 0 0 0 0 0 0 0 0 0 0 0 0 0 0 0 0 0 0 0 0 0 0 0 0 0 0 0 0 0 0 0 0 0 0 0 0 0 0 0 0 0 0 0 0 0 0 0 0 0 0 0 0 0 0 0 0 0 0 0 0 0 0 0 0 0 0 0 0 0 0 0 0 0 0 0 0 0 0 0 0 0 0 0 0 0 0 0 0 0 0 0 0 0 0 0 0 0 0 0 0 0 0 0 0 0 0 0 0 0 0 0 0 0 0 0 0 0 0 0 0 0 0 0 0 0 0 0 0 0 0 0 0 0 0 0 0 0 0 0 0 0 0 0 0 0 0 0 0 0 0 0 0 0 0 0 0 0 0 0 0 0 0 0 0 0 0 0 0 0 0 0 0 0 0 0 0 0 0 0 0 0 0 0 0 0 0 0 0 0 0 0 0 0 0 0 0 0 0 0 0 0 0 0 0 0 0 0 0 0 0 0 0 0 0 0 0 0 0 0 0 0 0 0 0 0 0 0 0 0 0 0 0 0 0 0 0 0 0 0 0 0 0 0 0 0 0 0 0 0 0 0 0 0 0 0 0 0 0 0 0 0 0 0 0 0 0 0 0 0 0 0 0 0 0 0 0 0 0 0 0 0 0 0 0 0 0 0 0 0 0 0 0 0 0 0 0 0 0 0 0 0 0 0 0 0 0 0 0 0 0 0 0 0 0 0 0 0 0 0 0 0 0 0 0 0 0 0 0 0 0 0 0 0 0 0 0 0 0 0 0 0 0 0 0 0 0 0 0 0 0 0 0 0 0 0 0 0 0 0 0 0 0 0 0 0 0 0 0 0 0 0 0 0 0 0 0 0 0 0 0 0 0 0 0 0 0 0 0 0 0 0 0 0 0 0 0 0 0 0 0 0 0 0 0 0 0 0 0 0 0 0 0 0 0 0 0 0 0 0 0 0 0 0 0 0 0 0 0 0 0 0 0 0 0 0 0 0 0 0 0 0 0 0 0 0 0 0 0 0 0 0 0 0 0 0 0 0 0 0 0 0 0 0 0 0 0 0 0 0 0 0 0 0 0 0 0 0 0 0 0 0 0 0 0 0 0 0 0 0 0 0 0 0 0 0 0 0 0 0 0 0 0 0 0 0 0 0 0 0 0 0 0 0 0 0 0 0 0 0 0 0 0 0 0 0 0 0 0 0 0 0 0 0 0 0 0 0 0 0 0 0 0 0 0 0 0 0 0 0 0 0 0 0 0 0 0 0 0 0 0 0 0 0 0 0 0 0 0 0 0 0 0 0 0 0 0 0 0 0 0 0 0 0 0 0 0 0 0 0 0 0 0 0 0 0 0 0 0 0 0 0 0 0 0 0 0 0 0 0 0 0 0 0 0 0 0 0 0 0 0 0 0 0 0 0 0 0 0 0 0 0 0 0 0 0 0 0 0 0 0 0 0 0 0 0 0 0 0 0 0 0 0 0 0 0 0 0 0 0 0 0 0 0 0 0 0 0 0 0 0 0 0 0 0 0 0 0 0 0 0 0 0 0 0 0 0 0 0 0 0 0 0 0 0 0 0 0 0 0 0 0 0 0 0 0 0 0 0 0 0 0 0 0 0 0 0 0 0 0 0 0 0 0 0 0 0 0 0 0 0 0 0 0 0 0 0 0 0 0 0 0 0 0 0 0 0 0 0 0 0 0 0 0 0 0 0 0 0 0 0 0 0 0 0 0 0 0 0 0 0 0 0 0 0 0 0 0 0 0 0 0 0 0 0 0 0 0 0 0 0 0 0 0 0 0 0 0 0 0 0 0 0 0 0 0 0 0 0 0 0 0 0 0 0 0 0 0 0 0 0 0 0 0 0 0 0 0 0 0 0 0 0 0 0 0 0 0 0 0 0 0 0 0 0 0 0 0 0 0 0 0 0 0 0 0 0 0 0 0 0 0 0 0 0 0 0 0 0 0 0 0 0 0 0 0 0 0 0 0 0 0 0 0 0 0 0 0 0 0 0 0 0 0 0 0 0 0 0 0 0 0 0 0 0 0 0 0 0 0 0 0 0 0 0 0 0 0 0 0 0 0 0 0 0 0 0 0 0 0 0 0 0 0 0 0 0 0 0 0 0 0 0 0 0 0 0 0 0 0 0 0 0 0 0 0 0 0 0 0 0 0 0 0 0 0 0 0 0 0 0 0 0 0 0 0 0 0 0 0 0 0 0 0 0 0 0 0 0 0 0 0 0 0 0 0 0 0 0 0 0 0 0 0 0 0 0 0 0 0 0 0 0 0 0 0 0 0 0 0 0 0 0 0 0 0 0 0 0 0 0 0 0 0 0 0 0 0 0 0 0 0 0 0 0 0 0 0 0 0 0 0 0 0 0 0 0 0 0 0 0 0 0 0 0 0 0 0 0 0 0 0 0 0 0 0 0 0 0 0 0 0 0 0 0 0 0 0 0 0 0 0 0 0 0 0 0 0 0 0 0 0 0 0 0 0 0 0 0 0 0 0 0 0 0 0 0 0 0 0 0 0 0 0 0 0 0 0 0 0 0 0 0 0 0 0 0 0 0 0 0 0 0 0 0 0 0 0 0 0 0 0 0 0 0 0 0 0 0 0 0 0 0 0 0 0 0 0 0 0 0 0 0 0 0 0 0 0 0 0 0 0 0 0 0 0 0 0 0 0 0 0 0 0 0 0 0 0 0 0 0 0 0 0 0 0 0 0 0 0 0 0 0 0 0 0 0 0 0 0 0 0 0 0 0 0 0 0 0 0 0 0 0 0 0 0 0 0 0 0 0 0 0 0 0 0 0 0 0 0 0 0 0 0 0 0 0 0 0 0 0 0 0 0 0 0 0 0 0 0 0 0 0 0 0 0 0 0 0 0 0 0 0 0 0 0 0 0 0 0 0 0 0 0 0 0 0 0 0 0 0 0 0 0 0 0 0 0 0 0 0 0 0 0 0 0 0 0 0 0 0 0 0 0 0 0 0 0 0 0 0 0 0 0 0 0 0 0 0 0 0 0 0 0 0 0 0 0 0 0 0 0 0 0 0 0 0 0 0 0 0 0 0 0 0 0 0 0 0 0 0 0 0 0 0 0 0 0 0 0 0 0 0 0 0 0 0 0 0 0 0 0 0 0 0 0 0 0 0 0 0 0 0 0 0 0 0 0 0 0 0 0 0 0 0 0 0 0 0 0 0 0 0 0 0 0 0 0 0 0 0 0 0 0 0 0 0 0 0 0 0 0 0 0 0 0 0 0 0 0 0 0 0 0 0 0 0 0 0 0 0 0 0 0 0 0 0 0 0 0 0 0 0 0 0 0 0 0 0 0 0 0 0 0 0 0 0 0 0 0 0 0 0 0 0 0 0 0 0 0 0 0 0 0 0 0 0 0 0 0 0 0 0 0 0 0 0 0 0 0 0 0 0 0 0 0 0 0 0 0 0 0 0 0 0 0 0 0 0 0 0 0 0 0 0 0 0 0 0 0 0 0 0 0 0 0 0 0 0 0 0 0 0 0 0 0 0 0 0 0 0 0 0 0 0 0 0 0 0 0 0 0 0 0 0 0 0 0 0 0 0 0 0 0 0 0 0 0 0 0 0 0 0 0 0 0 0 0 0 0 0 0 0 0 0 0 0 0 0 0 0 0 0 0 0 0 0 0 0 0 0 0 0 0 0 0 0 0 0 0 0 0 0 0 0 0 0 0 0 0 0 0 0 0 0 0 0 0 0 0 0 0 0 0 0 0 0 0 0 0 0 0 0 0 0 0 0 0 0 0 0 0 0 0 0 0 0 0 0 0 0 0 0 0 0 0 0 0 0 0 0 0 0 0 0 0 0 0 0 0 0 0 0 0 0 0 0 0 0 0 0 0 0 0 0 0 0 0 0 0 0 0 0 0 0 0 0 0 0 0 0 0 0 0 0 0 0 0 0 0 0 0 0 0 0 0 0 0 0 0 0 0 0 0 0 0 0 0 0 0 0 0 0 0 0 0 0 0 0 0 0 0 0 0 0 0 0 0 0 0 0 0 0 0 0 0 0 0 0 0 0 0 0 0 0 0 0 0 0 0 0 0 0 0 0 0 0 0 0 0 0 0 0 0 0 0 0 0 0 0 0 0 0 0 0 0 0 0 0 0 0 0 0 0 0 0 0 0 0 0 0 0 0 0 0 0 0 0 0 0 0 0 0 0 0 0 0 0 0 0 0 0 0 0 0 0 0 0 0 0 0 0 0 0 0 0 0 0 0 0 0 0 0 0 0 0 0 0 0 0 0 0 0 0 0 0 0 0 0 0 0 0 0 0 0 0 0 0 0 0 0 0 0 0 0 0 0 0 0 0 0 0 0 0 0 0 0 0 0 0 0 0 0 0 0 0 0 0 0 0 0 0 0 0 0 0 0 0 0 0 0 0 0 0 0 0 0 0 0 0 0 0 0 0 0 0 0 0 0 0 0 0 0 0 0 0 0 0 0 0 0 0 0 0 0 0 0 0 0 0 0 0 0 0 0 0 0 0 0 0 0 0 0 0 0 0 0 0 0 0 0 0 0 0 0 0 0 0 0 0 0 0 0 0 0 0 0 0 0 0 0 0 0 0 0 0 0 0 0 0 0 0 0 0 0 0 0 0 0 0 0 0 0 0 0 0 0 0 0 0 0 0 0 0 0 0 0 0 0 0 0 0 0 0 0 0 0 0 0 0 0 0 0 0 0 0 0 0 0 0 0 0 0 0 0 0 0 0 0 0 0 0 0 0 0 0 0 0 0 0 0 0 0 0 0 0 0 0 0 0 0 0 0 0 0 0 0 0 0 0 0 0 0 0 0 0 0 0 0 0 0 0 0 0 0 0 0 0 0 0 0 0 0 0 0 0 0 0 0 0 0 0 0 0 0 0 0 0 0 0 0 0 0 0 0 0 0 0 0 0 0 0 0 0 0 0 0 0 0 0 0 0 0 0 0 0 0 0 0 0 0 0 0 0 0 0 0 0 0 0 0 0 0 0 0 0 0 0 0 0 0 0 0 0 0 0 0 0 0 0 0 0 0 0 0 0 0 0 0 0 0 0 0 0 0 0 0 0 0 0 0 0 0 0 0 0 0 0 0 0 0 0 0 0 0 0 0 0 0 0 0 0 0 0 0 0 0 0 0 0 0 0 0 0 0 0 0 0 0 0 0 0 0 0 0 0 0 0 0 0 0 0 0 0 0 0 0 0 0 0 0 0 0 0 0 0 0 0 0 0 0 0 0 0 0 0 0 0 0 0 0 0 0 0 0 0 0 0 0 0 0 0 0 0 0 0 0 0 0 0 0 0 0 0 0 0 0 0 0 0 0 0 0 0 0 0 0 0 0 0 0 0 0 0 0 0 0 0 0 0 0 0 0 0 0 0 0 0 0 0 0 0 0 0 0 0 0 0 0 0 0 0 0 0 0 0 0 0 0 0 0 0 0 0 0 0 0 0 0 0 0 0 0 0 0 0 0 0 0 0 0 0 0 0 0 0 0 0 0 0 0 0 0 0 0 0 0 0 0 0 0 0 0 0 0 0 0 0 0 0 0 0 0 0 0 0 0 0 0 0 0 0 0 0 0 0 0 0 0 0 0 0 0 0 0 0 0 0 0 0 0 0 0 0 0 0 0 0 0 0 0 0 0 0 0 0 0 0 0 0 0 0 0 0 0 0 0 0 0 0 0 0 0 0 0 0 0 0 0 0 0 0 0 0 0 0 0 0 0 0 0 0 0 0 0 0 0 0 0 0 0 0 0 0 0 0 0 0 0 0 0 0 0 0 0 0 0 0 0 0 0 0 0 0 0 0 0 0 0 0 0 0 0 0 0 0 0 0 0 0 0 0 0 0 0 0 0 0 0 0 0 0 0 0 0 0 0 0 0 0 0 0 0 0 0 0 0 0 0 0 0 0 0 0 0 0 0 0 0 0 0 0 0 0 0 0 0 0 0 0 0 0 0 0 0 0 0 0 0 0 0 0 0 0 0 0 0 0 0 0 0 0 0 0 0 0 0 0 0 0 0 0 0 0 0 0 0 0 0 0 0 0 0 0 0 0 0 0 0 0 0 0 0 0 0 0 0 0 0 0 0 0 0 0 0 0 0 0 0 0 0 0 0 0 0 0 0 0 0 0 0 0 0 0 0 0 0 0 0 0 0 0 0 0 0 0 0 0 0 0 0 0 0 0 0 0 0 0 0 0 0 0 0 0 0 0 0 0 0 0 0 0 0 0 0 0 0 0 0 0 0 0 0 0 0 0 0 0 0 0 0 0 0 0 0 0 0 0 0 0 0 0 0 0 0 0 0 0 0 0 0 0 0 0 0 0 0 0 0 0 0 0 0 0 0 0 0 0 0 0 0 0 0 0 0 0 0 0 0 0 0 0 0 0 0 0 0 0 0 0 0 0 0 0 0 0 0 0 0 0 0 0 0 0 0 0 0 0 0 0 0 0 0 0 0 0 0 0 0 0 0 0 0 0 0 0 0 0 0 0 0 0 0 0 0 0 0 0 0 0 0 0 0 0 0 0 0 0 0 0 0 0 0 0 0 0 0 0 0 0 0 0 0 0 0 0 0 0 0 0 0 0 0 0 0 0 0 0 0 0 0 0 0 0 0 0 0 0 0 0 0 0 0 0 0 0 0 0 0 0 0 0 0 0 0 0 0 0 0 0 0 0 0 0 0 0 0 0 0 0 0 0 0 0 0 0 0 0 0 0 0 0 0 0 0 0 0 0 0 0 0 0 0 0 0 0 0 0 0 0 0 0 0 0 0 0 0 0 0 0 0 0 0 0 0 0 0 0 0 0 0 0 0 0 0 0 0 0 0 0 0 0 0 0 0 0 0 0 0 0 0 0 0 0 0 0 0 0 0 0 0 0 0 0 0 0 0 0 0 0 0 0 0 0 0 0 0 0 0 0 0 0 0 0 0 0 0 0 0 0 0 0 0 0 0 0 0 0 0 0 0 0 0 0 0 0 0 0 0 0 0 0 0 0 0 0 0 0 0 0 0 0 0 0 0 0 0 0 0 0 0 0 0 0 0 0 0 0 0 0 0 0 0 0 0 0 0 0 0 0 0 0 0 0 0 0 0 0 0 0 0 0 0 0 0 0 0 0 0 0 0 0 0 0 0 0 0 0 0 0 0 0 0 0 0 0 0 0 0 0 0 0 0 0 0 0 0 0 0 0 0 0 0 0 0 0 0 0 0 0 0 0 0 0 0 0 0 0 0 0 0 0 0 0 0 0 0 0 0 0 0 0 0 0 0 0 0 0 0 0 0 0 0 0 0 0 0 0 0 0 0 0 0 0 0 0 0 0 0 0 0 0 0 0 0 0 0 0 0 0 0 0 0 0 0 0 0 0 0 0 0 0 0 0 0 0 0 0 0 0 0 0 0 0 0 0 0 0 0 0 0 0 0 0 0 0 0 0 0 0 0 0 0 0 0 0 0 0 0 0 0 0 0 0 0 0 0 0 0 0 0 0 0 0 0 0 0 0 0 0 0 0 0 0 0 0 0 0 0 0 0 0 0 0 0 0 0 0 0 0 0 0 0 0 0 0 0 0 0 0 0 0 0 0 0 0 0 0 0 0 0 0 0 0 0 0 0 0 0 0 0 0 0 0 0 0 0 0 0 0 0 0 0 0 0 0 0 0 0 0 0 0 0 0 0 0 0 0 0 0 0 0 0 0 0 0 0 0 0 0 0 0 0 0 0 0 0 0 0 0 0 0 0 0 0 0 0 0 0 0 0 0 0 0 0 0 0 0 0 0 0 0 0 0 0 0 0 0 0 0 0 0 0 0 0 0 0 0 0 0 0 0 0 0 0 0 0 0 0 0 0 0 0 0 0 0 0 0 0 0 0 0 0 0 0 0 0 0 0 0 0 0 0 0 0 0 0 0 0 0 0 0 0 0 0 0 0 0 0 0 0 0 0 0 0 0 0 0 0 0 0 0 0 0 0 0 0 0 0 0 0 0 0 0 0 0 0 0 0 0 0 0 0 0 0 0 0 0 0 0 0 0 0 0 0 0 0 0 0 0 0 0 0 0 0 0 0 0 0 0 0 0 0 0 0 0 0 0 0 0 0 0 0 0 0 0 0 0 0 0 0 0 0 0 0 0 0 0 0 0 0 0 0 0 0 0 0 0 0 0 0 0 0 0 0 0 0 0 0 0 0 0 0 0 0 0 0 0 0 0 0 0 0 0 0 0 0 0 0 0 0 0 0 0 0 0 0 0 0 0 0 0 0 0 0 0 0 0 0 0 0 0 0 0 0 0 0 0 0 0 0 0 0 0 0 0 0 0 0 0 0 0 0 0 0 0 0 0 0 0 0 0 0 0 0 0 0 0 0 0 0 0 0 0 0 0 0 0 0 0 0 0 0 0 0 0 0 0 0 0 0 0 0 0 0 0 0 0 0 0 0 0 0 0 0 0 0 0 0 0 0 0 0 0 0 0 0 0 0 0 0 0 0 0 0 0 0 0 0 0 0 0 0 0 0 0 0 0 0 0 0 0 0 0 0 0 0 0 0 0 0 0 0 0 0 0 0 0 0 0 0 0 0 0 0 0 0 0 0 0 0 0 0 0 0 0 0 0 0 0 0 0 0 0 0 0 0 0 0 0 0 0 0 0 0 0 0 0 0 0 0 0 0 0 0 0 0 0 0 0 0 0 0 0 0 0 0 0 0 0 0 0 0 0 0 0 0 0 0 0 0 0 0 0 0 0 0 0 0 0 0 0 0 0 0 0 0 0 0 0 0 0 0 0 0 0 0 0 0 0 0 0 0 0 0 0 0 0 0 0 0 0 0 0 0 0 0 0 0 0 0 0 0 0 0 0 0 0 0 0 0 0 0 0 0 0 0 0 0 0 0 0 0 0 0 0 0 0 0 0 0 0 0 0 0 0 0 0 0 0 0 0 0 0 0 0 0 0 0 0 0 0 0 0 0 0 0 0 0 0 0 0 0 0 0 0 0 0 0 0 0 0 0 0 0 0 0 0 0 0 0 0 0 0 0 0 0 0 0 0 0 0 0 0 0 0 0 0 0 0 0 0 0 0 0 0 0 0 0 0 0 0 0 0 0 0 0 0 0 0 0 0 0 0 0 0 0 0 0 0 0 0 0 0 0 0 0 0 0 0 0 0 0 0 0 0 0 0 0 0 0 0 0 0 0 0 0 0 0 0 0 0 0 0 0 0 0 0 0 0 0 0 0 0 0 0 0 0 0 0 0 0 0 0 0 0 0 0 0 0 0 0 0 0 0 0 0 0 0 0 0 0 0 0 0 0 0 0 0 0 0 0 0 0 0 0 0 0 0 0 0 0 0 0 0 0 0 0 0 0 0 0 0 0 0 0 0 0 0 0 0 0 0 0 0 0 0 0 0 0 0 0 0 0 0 0 0 0 0 0 0 0 0 0 0 0 0 0 0 0 0 0 0 0 0 0 0 0 0 0 0 0 0 0 0 0 0 0 0 0 0 0 0 0 0 0 0 0 0 0 0 0 0 0 0 0 0 0 0 0 0 0 0 0 0 0 0 0 0 0 0 0 0 0 0 0 0 0 0 0 0 0 0 0 0 0 0 0 0 0 0 0 0 0 0 0 0 0 0 0 0 0 0 0 0 0 0 0 0 0 0 0 0 0 0 0 0 0 0 0 0 0 0 0 0 0 0 0 0 0 0 0 0 0 0 0 0 0 0 0 0 0 0 0 0 0 0 0 0 0 0 0 0 0 0 0 0 0 0 0 0 0 0 0 0 0 0 0 0 0 0 0 0 0 0 0 0 0 0 0 0 0 0 0 0 0 0 0 0 0 0 0 0 0 0 0 0 0 0 0 0 0 0 0 0 0 0 0 0 0 0 0 0 0 0 0 0 0 0 0 0 0 0 0 0 0 0 0 0 0 0 0 0 0 0 0 0 0 0 0 0 0 0 0 0 0 0 0 0 0 0 0 0 0 0 0 0 0 0 0 0 0 0 0 0 0 0 0 0 0 0 0 0 0 0 0 0 0 0 0 0 0 0 0 0 0 0 0 0 0 0 0 0 0 0 0 0 0 0 0 0 0 0 0 0 0 0 0 0 0 0 0 0 0 0 0 0 0 0 0 0 0 0 0 0 0 0 0 0 0 0 0 0 0 0 0 0 0 0 0 0 0 0 0 0 0 0 0 0 0 0 0 0 0 0 0 0 0 0 0 0 0 0 0 0 0 0 0 0 0 0 0 0 0 0 0 0 0 0 0 0 0 0 0 0 0 0 0 0 0 0 0 0 0 0 0 0 0 0 0 0 0 0 0 0 0 0 0 0 0 0 0 0 0 0 0 0 0 0 0 0 0 0 0 0 0 0 0 0 0 0 0 0 0 0 0 0 0 0 0 0 0 0 0 0 0 0 0 0 0 0 0 0 0 0 0 0 0 0 0 0 0 0 0 0 0 0 0 0 0 0 0 0 0 0 0 0 0 0 0 0 0 0 0 0 0 0 0 0 0 0 0 0 0 0 0 0 0 0 0 0 0 0 0 0 0 0 0 0 0 0 0 0 0 0 0 0 0 0 0 0 0 0 0 0 0 0 0 0 0 0 0 0 0 0 0 0 0 0 0 0 0 0 0 0 0 0 0 0 0 0 0 0 0 0 0 0 0 0 0 0 0 0 0 0 0 0 0 0 0 0 0 0 0 0 0 0 0 0 0 0 0 0 0 0 0 0 0 0 0 0 0 0 0 0 0 0 0 0 0 0 0 0 0 0 0 0 0 0 0 0 0 0 0 0 0 0 0 0 0 0 0 0 0 0 0 0 0 0 0 0 0 0 0 0 0 0 0 0 0 0 0 0 0 0 0 0 0 0 0 0 0 0 0 0 0 0 0 0 0 0 0 0 0 0 0 0 0 0 0 0 0 0 0 0 0 0 0 0 0 0 0 0 0 0 0 0 0 0 0 0 0 0 0 0 0 0 0 0 0 0 0 0 0 0 0 0 0 0 0 0 0 0 0 0 0 0 0 0 0 0 0 0 0 0 0 0 0 0 0 0 0 0 0 0 0 0 0 0 0 0 0 0 0 0 0 0 0 0 0 0 0 0 0 0 0 0 0 0 0 0 0 0 0 0 0 0 0 0 0 0 0 0 0 0 0 0 0 0 0 0 0 0 0 0 0 0 0 0 0 0 0 0 0 0 0 0 0 0 0 0 0 0 0 0 0 0 0 0 0 0 0 0 0 0 0 0 0 0 0 0 0 0 0 0 0 0 0 0 0 0 0 0 0 0 0 0 0 0 0 0 0 0 0 0 0 0 0 0 0 0 0 0 0 0 0 0 0 0 0 0 0 0 0 0 0 0 0 0 0 0 0 0 0 0 0 0 0 0 0 0 0 0 0 0 0 0 0 0 0 0 0 0 0 0 0 0 0 0 0 0 0 0 0 0 0 0 0 0 0 0 0 0 0 0 0 0 0 0 0 0 0 0 0 0 0 0 0 0 0 0 0 0 0 0 0 0 0 0 0 0 0 0 0 0 0 0 0 0 0 0 0 0 0 0 0 0 0 0 0 0 0 0 0 0 0 0 0 0 0 0 0 0 0 0 0 0 0 0 0 0 0 0 0 0 0 0 0 0 0 0 0 0 0 0 0 0 0 0 0 0 0 0 0 0 0 0 0 0 0 0 0 0 0 0 0 0 0 0 0 0 0 0 0 0 0 0 0 0 0 0 0 0 0 0 0 0 0 0 0 0 0 0 0 0 0 0 0 0 0 0 0 0 0 0 0 0 0 0 0 0 0 0 0 0 0 0 0 0 0 0 0 0 0 0 0 0 0 0 0 0 0 0 0 0 0 0 0 0 0 0 0 0 0 0 0 0 0 0 0 0 0 0 0 0 0 0 0 0 0 0 0 0 0 0 0 0 0 0 0 0 0 0 0 0 0 0 0 0 0 0 0 0 0 0 0 0 0 0 0 0 0 0 0 0 0 0 0 0 0 0 0 0 0 0 0 0 0 0 0 0 0 0 0 0 0 0 0 0 0 0 0 0 0 0 0 0 0 0 0 0 0 0 0 0 0 0 0 0 0 0 0 0 0 0 0 0 0 0 0 0 0 0 0 0 0 0 0 0 0 0 0 0 0 0 0 0 0 0 0 0 0 0 0 0 0 0 0 0 0 0 0 0 0 0 0 0 0 0 0 0 0 0 0 0 0 0 0 0 0 0 0 0 0 0 0 0 0 0 0 0 0 0 0 0 0 0 0 0 0 0 0 0 0 0 0 0 0 0 0 0 0 0 0 0 0 0 0 0 0 0 0 0 0 0 0 0 0 0 0 0 0 0 0 0 0 0 0 0 0 0 0 0 0 0 0 0 0 0 0 0 0 0 0 0 0 0 0 0 0 0 0 0 0 0 0 0 0 0 0 0 0 0 0 0 0 0 0 0 0 0 0 0 0 0 0 0 0 0 0 0 0 0 0 0 0 0 0 0 0 0 0 0 0 0 0 0 0 0 0 0 0 0 0 0 0 0 0 0 0 0 0 0 0 0 0 0 0 0 0 0 0 0 0 0 0 0 0 0 0 0 0 0 0 0 0 0 0 0 0 0 0 0 0 0 0 0 0 0 0 0 0 0 0 0 0 0 0 0 0 0 0 0 0 0 0 0 0 0 0 0 0 0 0 0 0 0 0 0 0 0 0 0 0 0 0 0 0 0 0 0 0 0 0 0 0 0 0 0 0 0 0 0 0 0 0 0 0 0 0 0 0 0 0 0 0 0 0 0 0 0 0 0 0 0 0 0 0 0 0 0 0 0 0 0 0 0 0 0 0 0 0 0 0 0 0 0 0 0 0 0 0 0 0 0 0 0 0 0 0 0 0 0 0 0 0 0 0 0 0 0 0 0 0 0 0 0 0 0 0 0 0 0 0 0 0 0 0 0 0 0 0 0 0 0 0 0 0 0 0 0 0 0 0 0 0 0 0 0 0 0 0 0 0 0 0 0 0 0 0 0 0 0 0 0 0 0 0 0 0 0 0 0 0 0 0 0 0 0 0 0 0 0 0 0 0 0 0 0 0 0 0 0 0 0 0 0 0 0 0 0 0 0 0 0 0 0 0 0 0 0 0 0 0 0 0 0 0 0 0 0 0 0 0 0 0 0 0 0 0 0 0 0 0 0 0 0 0 0 0 0 0 0 0 0 0 0 0 0 0 0 0 0 0 0 0 0 0 0 0 0 0 0 0 0 0 0 0 0 0 0 0 0 0 0 0 0 0 0 0 0 0 0 0 0 0 0 0 0 0 0 0 0 0 0 0 0 0 0 0 0 0 0 0 0 0 0 0 0 0 0 0 0 0 0 0 0 0 0 0 0 0 0 0 0 0 0 0 0 0 0 0 0 0 0 0 0 0 0 0 0 0 0 0 0 0 0 0 0 0 0 0 0 0 0 0 0 0 0 0 0 0 0 0 0 0 0 0 0 0 0 0 0 0 0 0 0 0 0 0 0 0 0 0 0 0 0 0 0 0 0 0 0 0 0 0 0 0 0 0 0 0 0 0 0 0 0 0 0 0 0 0 0 0 0 0 0 0 0 0 0 0 0 0 0 0 0 0 0 0 0 0 0 0 0 0 0 0 0 0 0 0 0 0 0 0 0 0 0 0 0 0 0 0 0 0 0 0 0 0 0 0 0 0 0 0 0 0 0 0 0 0 0 0 0 0 0 0 0 0 0 0 0 0 0 0 0 0 0 0 0 0 0 0 0 0 0 0 0 0 0 0 0 0 0 0 0 0 0 0 0 0 0 0 0 0 0 0 0 0 0 0 0 0 0 0 0 0 0 0 0 0 0 0 0 0 0 0 0 0 0 0 0 0 0 0 0 0 0 0 0 0 0 0 0 0 0 0 0 0 0 0 0 0 0 0 0 0 0 0 0 0 0 0 0 0 0 0 0 0 0 0 0 0 0 0 0 0 0 0 0 0 0 0 0 0 0 0 0 0 0 0 0 0 0 0 0 0 0 0 0 0 0 0 0 0 0 0 0 0 0 0 0 0 0 0 0 0 0 0 0 0 0 0 0 0 0 0 0 0 0 0 0 0 0 0 0 0 0 0 0 0 0 0 0 0 0 0 0 0 0 0 0 0 0 0 0 0 0 0 0 0 0 0 0 0 0 0 0 0 0 0 0 0 0 0 0 0 0 0 0 0 0 0 0 0 0 0 0 0 0 0 0 0 0 0 0 0 0 0 0 0 0 0 0 0 0 0 0 0 0 0 0 0 0 0 0 0 0 0 0 0 0 0 0 0 0 0 0 0 0 0 0 0 0 0 0 0 0 0 0 0 0 0 0 0 0 0 0 0 0 0 0 0 0 0 0 0 0 0 0 0 0 0 0 0 0 0 0 0 0 0 0 0 0 0 0 0 0 0 0 0 0 0 0 0 0 0 0 0 0 0 0 0 0 0 0 0 0 0 0 0 0 0 0 0 0 0 0 0 0 0 0 0 0 0 0 0 0 0 0 0 0 0 0 0 0 0 0 0 0 0 0 0 0 0 0 0 0 0 0 0 0 0 0 0 0 0 0 0 0 0 0 0 0 0 0 0 0 0 0 0 0 0 0 0 0 0 0 0 0 0 0 0 0 0 0 0 0 0 0 0 0 0 0 0 0 0 0 0 0 0 0 0 0 0 0 0 0 0 0 0 0 0 0 0 0 0 0 0 0 0 0 0 0 0 0 0 0 0 0 0 0 0 0 0 0 0 0 0 0 0 0 0 0 0 0 0 0 0 0 0 0 0 0 0 0 0 0 0 0 0 0 0 0 0 0 0 0 0 0 0 0 0 0 0 0 0 0 0 0 0 0 0 0 0 0 0 0 0 0 0 0 0 0 0 0 0 0 0 0 0 0 0 0 0 0 0 0 0 0 0 0 0 0 0 0 0 0 0 0 0 0 0 0 0 0 0 0 0 0 0 0 0 0 0 0 0 0 0 0 0 0 0 0 0 0 0 0 0 0 0 0 0 0 0 0 0 0 0 0 0 0 0 0 0 0 0 0 0 0 0 0 0 0 0 0 0 0 0 0 0 0 0 0 0 0 0 0 0 0 0 0 0 0 0 0 0 0 0 0 0 0 0 0 0 0 0 0 0 0 0 0 0 0 0 0 0 0 0 0 0 0 0 0 0 0 0 0 0 0 0 0 0 0 0 0 0 0 0 0 0 0 0 0 0 0 0 0 0 0 0 0 0 0 0 0 0 0 0 0 0 0 0 0 0 0 0 0 0 0 0 0 0 0 0 0 0 0 0 0 0 0 0 0 0 0 0 0 0 0 0 0 0 0 0 0 0 0 0 0 0 0 0 0 0 0 0 0 0 0 0 0 0 0 0 0 0 0 0 0 0 0 0 0 0 0 0 0 0 0 0 0 0 0 0 0 0 0 0 0 0 0 0 0 0 0 0 0 0 0 0 0 0 0 0 0 0 0 0 0 0 0 0 0 0 0 0 0 0 0 0 0 0 0 0 0 0 0 0 0 0 0 0 0 0 0 0 0 0 0 0 0 0 0 0 0 0 0 0 0 0 0 0 0 0 0 0 0 0 0 0 0 0 0 0 0 0 0 0 0 0 0 0 0 0 0 0 0 0 0 0 0 0 0 0 0 0 0 0 0 0 0 0 0 0 0 0 0 0 0 0 0 0 0 0 0 0 0 0 0 0 0 0 0 0 0 0 0 0 0 0 0 0 0 0 0 0 0 0 0 0 0 0 0 0 0 0 0 0 0 0 0 0 0 0 0 0 0 0 0 0 0 0 0 0 0 0 0 0 0 0 0 0 0 0 0 0 0 0 0 0 0 0 0 0 0 0 0 0 0 0 0 0 0 0 0 0 0 0 0 0 0 0 0 0 0 0 0 0 0 0 0 0 0 0 0 0 0 0 0 0 0 0 0 0 0 0 0 0 0 0 0 0 0 0 0 0 0 0 0 0 0 0 0 0 0 0 0 0 0 0 0 0 0 0 0 0 0 0 0 0 0 0 0 0 0 0 0 0 0 0 0 0 0 0 0 0 0 0 0 0 0 0 0 0 0 0 0 0 0 0 0 0 0 0 0 0 0 0 0 0 0 0 0 0 0 0 0 0 0 0 0 0 0 0 0 0 0 0 0 0 0 0 0 0 0 0 0 0 0 0 0 0 0 0 0 0 0 0 0 0 0 0 0 0 0 0 0 0 0 0 0 0 0 0 0 0 0 0 0 0 0 0 0 0 0 0 0 0 0 0 0 0 0 0 0 0 0 0 0 0 0 0 0 0 0 0 0 0 0 0 0 0 0 0 0 0 0 0 0 0 0 0 0 0 0 0 0 0 0 0 0 0 0 0 0 0 0 0 0 0 0 0 0 0 0 0 0 0 0 0 0 0 0 0 0 0 0 0 0 0 0 0 0 0 0 0 0 0 0 0 0 0 0 0 0 0 0 0 0 0 0 0 0 0 0 0 0 0 0 0 0 0 0 0 0 0 0 0 0 0 0 0 0 0 0 0 0 0 0 0 0 0 0 0 0 0 0 0 0 0 0 0 0 0 0 0 0 0 0 0 0 0 0 0 0 0 0 0 0 0 0 0 0 0 0 0 0 0 0 0 0 0 0 0 0 0 0 0 0 0 0 0 0 0 0 0 0 0 0 0 0 0 0 0 0 0 0 0 0 0 0 0 0 0 0 0 0 0 0 0 0 0 0 0 0 0 0 0 0 0 0 0 0 0 0 0 0 0 0 0 0 0 0 0 0 0 0 0 0 0 0 0 0 0 0 0 0 0 0 0 0 0 0 0 0 0 0 0 0 0 0 0 0 0 0 0 0 0 0 0 0 0 0 0 0 0 0 0 0 0 0 0 0 0 0 0 0 0 0 0 0 0 0 0 0 0 0 0 0 0 0 0 0 0 0 0 0 0 0 0 0 0 0 0 0 0 0 0 0 0 0 0 0 0 0 0 0 0 0 0 0 0 0 0 0 0 0 0 0 0 0 0 0 0 0 0 0 0 0 0 0 0 0 0 0 0 0 0 0 0 0 0 0 0 0 0 0 0 0 0 0 0 0 0 0 0 0 0 0 0 0 0 0 0 0 0 0 0 0 0 0 0 0 0 0 0 0 0 0 0 0 0 0 0 0 0 0 0 0 0 0 0 0 0 0 0 0 0 0 0 0 0 0 0 0 0 0 0 0 0 0 0 0 0 0 0 0 0 0 0 0 0 0 0 0 0 0 0 0 0 0 0 0 0 0 0 0 0 0 0 0 0 0 0 0 0 0 0 0 0 0 0 0 0 0 0 0 0 0 0 0 0 0 0 0 0 0 0 0 0 0 0 0 0 0 0 0 0 0 0 0 0 0 0 0 0 0 0 0 0 0 0 0 0 0 0 0 0 0 0 0 0 0 0 0 0 0 0 0 0 0 0 0 0 0 0 0 0 0 0 0 0 0 0 0 0 0 0 0 0 0 0 0 0 0 0 0 0 0 0 0 0 0 0 0 0 0 0 0 0 0 0 0 0 0 0 0 0 0 0 0 0 0 0 0 0 0 0 0 0 0 0 0 0 0 0 0 0 0 0 0 0 0 0 0 0 0 0 0 0 0 0 0 0 0 0 0 0 0 0 0 0 0 0 0 0 0 0 0 0 0 0 0 0 0 0 0 0 0 0 0 0 0 0 0 0 0 0 0 0 0 0 0 0 0 0 0 0 0 0 0 0 0 0 0 0 0 0 0 0 0 0 0 0 0 0 0 0 0 0 0 0 0 0 0 0 0 0 0 0 0 0 0 0 0 0 0 0 0 0 0 0 0 0 0 0 0 0 0 0 0 0 0 0 0 0 0 0 0 0 0 0 0 0 0 0 0 0 0 0 0 0 0 0 0 0 0 0 0 0 0 0 0 0 0 0 0 0 0 0 0 0 0 0 0 0 0 0 0 0 0 0 0 0 0 0 0 0 0 0 0 0 0 0 0 0 0 0 0 0 0 0 0 0 0 0 0 0 0 0 0 0 0 0 0 0 0 0 0 0 0 0 0 0 0 0 0 0 0 0 0 0 0 0 0 0 0 0 0 0 0 0 0 0 0 0 0 0 0 0 0 0 0 0 0 0 0 0 0 0 0 0 0 0 0 0 0 0 0 0 0 0 0 0 0 0 0 0 0 0 0 0 0 0 0 0 0 0 0 0 0 0 0 0 0 0 0 0 0 0 0 0 0 0 0 0 0 0 0 0 0 0 0 0 0 0 0 0 0 0 0 0 0 0 0 0 0 0 0 0 0 0 0 0 0 0 0 0 0 0 0 0 0 0 0 0 0 0 0 0 0 0 0 0 0 0 0 0 0 0 0 0 0 0 0 0 0 0 0 0 0 0 0 0 0 0 0 0 0 0 0 0 0 0 0 0 0 0 0 0 0 0 0 0 0 0 0 0 0 0 0 0 0 0 0 0 0 0 0 0 0 0 0 0 0 0 0 0 0 0 0 0 0 0 0 0 0 0 0 0 0 0 0 0 0 0 0 0 0 0 0 0 0 0 0 0 0 0 0 0 0 0 0 0 0 0 0 0 0 0 0 0 0 0 0 0 0 0 0 0 0 0 0 0 0 0 0 0 0 0 0 0 0 0 0 0 0 0 0 0 0 0 0 0 0 0 0 0 0 0 0 0 0 0 0 0 0 0 0 0 0 0 0 0 0 0 0 0 0 0 0 0 0 0 0 0 0 0 0 0 0 0 0 0 0 0 0 0 0 0 0 0 0 0 0 0 0 0 0 0 0 0 0 0 0 0 0 0 0 0 0 0 0 0 0 0 0 0 0 0 0 0 0 0 0 0 0 0 0 0 0 0 0 0 0 0 0 0 0 0 0 0 0 0 0 0 0 0 0 0 0 0 0 0 0 0 0 0 0 0 0 0 0 0 0 0 0 0 0 0 0 0 0 0 0 0 0 0 0 0 0 0 0 0 0 0 0 0 0 0 0 0 0 0 0 0 0 0 0 0 0 0 0 0 0 0 0 0 0 0 0 0 0 0 0 0 0 0 0 0 0 0 0 0 0 0 0 0 0 0 0 0 0 0 0 0 0 0 0 0 0 0 0 0 0 0 0 0 0 0 0 0 0 0 0 0 0 0 0 0 0 0 0 0 0 0 0 0 0 0 0 0 0 0 0 0 0 0 0 0 0 0 0 0 0 0 0 0 0 0 0 0 0 0 0 0 0 0 0 0 0 0 0 0 0 0 0 0 0 0 0 0 0 0 0 0 0 0 0 0 0 0 0 0 0 0 0 0 0 0 0 0 0 0 0 0 0 0 0 0 0 0 0 0 0 0 0 0 0 0 0 0 0 0 0 0 0 0 0 0 0 0 0 0 0 0 0 0 0 0 0 0 0 0 0 0 0 0 0 0 0 0 0 0 0 0 0 0 0 0 0 0 0 0 0 0 0 0 0 0 0 0 0 0 0 0 0 0 0 0 0 0 0 0 0 0 0 0 0 0 0 0 0 0 0 0 0 0 0 0 0 0 0 0 0 0 0 0 0 0 0 0 0 0 0 0 0 0 0 0 0 0 0 0 0 0 0 0 0 0 0 0 0 0 0 0 0 0 0 0 0 0 0 0 0 0 0 0 0 0 0 0 0 0 0 0 0 0 0 0 0 0 0 0 0 0 0 0 0 0 0 0 0 0 0 0 0 0 0 0 0 0 0 0 0 0 0 0 0 0 0 0 0 0 0 0 0 0 0 0 0 0 0 0 0 0 0 0 0 0 0 0 0 0 0 0 0 0 0 0 0 0 0 0 0 0 0 0 0 0 0 0 0 0 0 0 0 0 0 0 0 0 0 0 0 0 0 0 0 0 0 0 0 0 0 0 0 0 0 0 0 0 0 0 0 0 0 0 0 0 0 0 0 0 0 0 0 0 0 0 0 0 0 0 0 0 0 0 0 0 0 0 0 0 0 0 0 0 0 0 0 0 0 0 0 0 0 0 0 0 0 0 0 0 0 0 0 0 0 0 0 0 0 0 0 0 0 0 0 0 0 0 0 0 0 0 0 0 0 0 0 0 0 0 0 0 0 0 0 0 0 0 0 0 0 0 0 0 0 0 0 0 0 0 0 0 0 0 0 0 0 0 0 0 0 0 0 0 0 0 0 0 0 0 0 0 0 0 0 0 0 0 0 0 0 0 0 0 0 0 0 0 0 0 0 0 0 0 0 0 0 0 0 0 0 0 0 0 0 0 0 0 0 0 0 0 0 0 0 0 0 0 0 0 0 0 0 0 0 0 0 0 0 0 0 0 0 0 0 0 0 0 0 0 0 0 0 0 0 0 0 0 0 0 0 0 0 0 0 0 0 0 0 0 0 0 0 0 0 0 0 0 0 0 0 0 0 0 0 0 0 0 0 0 0 0 0 0 0 0 0 0 0 0 0 0 0 0 0 0 0 0 0 0 0 0 0 0 0 0 0 0 0 0 0 0 0 0 0 0 0 0 0 0 0 0 0 0 0 0 0 0 0 0 0 0 0 0 0 0 0 0 0 0 0 0 0 0 0 0 0 0 0 0 0 0 0 0 0 0 0 0 0 0 0 0 0 0 0 0 0 0 0 0 0 0 0 0 0 0 0 0 0 0 0 0 0 0 0 0 0 0 0 0 0 0 0 0 0 0 0 0 0 0 0 0 0 0 0 0 0 0 0 0 0 0 0 0 0 0 0 0 0 0 0 0 0 0 0 0 0 0 0 0 0 0 0 0 0 0 0 0 0 0 0 0 0 0 0 0 0 0 0 0 0 0 0 0 0 0 0 0 0 0 0 0 0 0 0 0 0 0 0 0 0 0 0 0 0 0 0 0 0 0 0 0 0 0 0 0 0 0 0 0 0 0 0 0 0 0 0 0 0 0 0 0 0 0 0 0 0 0 0 0 0 0 0 0 0 0 0 0 0 0 0 0 0 0 0 0 0 0 0 0 0 0 0 0 0 0 0 0 0 0 0 0 0 0 0 0 0 0 0 0 0 0 0 0 0 0 0 0 0 0 0 0 0 0 0 0 0 0 0 0 0 0 0 0 0 0 0 0 0 0 0 0 0 0 0 0 0 0 0 0 0 0 0 0 0 0 0 0 0 0 0 0 0 0 0 0 0 0 0 0 0 0 0 0 0 0 0 0 0 0 0 0 0 0 0 0 0 0 0 0 0 0 0 0 0 0 0 0 0 0 0 0 0 0 0 0 0 0 0 0 0 0 0 0 0 0 0 0 0 0 0 0 0 0 0 0 0 0 0 0 0 0 0 0 0 0 0 0 0 0 0 0 0 0 0 0 0 0 0 0 0 0 0 0 0 0 0 0 0 0 0 0 0 0 0 0 0 0 0 0 0 0 0 0 0 0 0 0 0 0 0 0 0 0 0 0 0 0 0 0 0 0 0 0 0 0 0 0 0 0 0 0 0 0 0 0 0 0 0 0 0 0 0 0 0 0 0 0 0 0 0 0 0 0 0 0 0 0 0 0 0 0 0 0 0 0 0 0 0 0 0 0 0 0 0 0 0 0 0 0 0 0 0 0 0 0 0 0 0 0 0 0 0 0 0 0 0 0 0 0 0 0 0 0 0 0 0 0 0 0 0 0 0 0 0 0 0 0 0 0 0 0 0 0 0 0 0 0 0 0 0 0 0 0 0 0 0 0 0 0 0 0 0 0 0 0 0 0 0 0 0 0 0 0 0 0 0 0 0 0 0 0 0 0 0 0 0 0 0 0 0 0 0 0 0 0 0 0 0 0 0 0 0 0 0 0 0 0 0 0 0 0 0 0 0 0 0 0 0 0 0 0 0 0 0 0 0 0 0 0 0 0 0 0 0 0 0 0 0 0 0 0 0 0 0 0 0 0 0 0 0 0 0 0 0 0 0 0 0 0 0 0 0 0 0 0 0 0 0 0 0 0 0 0 0 0 0 0 0 0 0 0 0 0 0 0 0 0 0 0 0 0 0 0 0 0 0 0 0 0 0 0 0 0 0 0 0 0 0 0 0 0 0 0 0 0 0 0 0 0 0 0 0 0 0 0 0 0 0 0 0 0 0 0 0 0 0 0 0 0 0 0 0 0 0 0 0 0 0 0 0 0 0 0 0 0 0 0 0 0 0 0 0 0 0 0 0 0 0 0 0 0 0 0 0 0 0 0 0 0 0 0 0 0 0 0 0 0 0 0 0 0 0 0 0 0 0 0 0 0 0 0 0 0 0 0 0 0 0 0 0 0 0 0 0 0 0 0 0 0 0 0 0 0 0 0 0 0 0 0 0 0 0 0 0 0 0 0 0 0 0 0 0 0 0 0 0 0 0 0 0 0 0 0 0 0 0 0 0 0 0 0 0 0 0 0 0 0 0 0 0 0 0 0 0 0 0 0 0 0 0 0 0 0 0 0 0 0 0 0 0 0 0 0 0 0 0 0 0 0 0 0 0 0 0 0 0 0 0 0 0 0 0 0 0 0 0 0 0 0 0 0 0 0 0 0 0 0 0 0 0 0 0 0 0 0 0 0 0 0 0 0 0 0 0 0 0 0 0 0 0 0 0 0 0 0 0 0 0 0 0 0 0 0 0 0 0 0 0 0 0 0 0 0 0 0 0 0 0 0 0 0 0 0 0 0 0 0 0 0 0 0 0 0 0 0 0 0 0 0 0 0 0 0 0 0 0 0 0 0 0 0 0 0 0 0 0 0 0 0 0 0 0 0 0 0 0 0 0 0 0 0 0 0 0 0 0 0 0 0 0 0 0 0 0 0 0 0 0 0 0 0 0 0 0 0 0 0 0 0 0 0 0 0 0 0 0 0 0 0 0 0 0 0 0 0 0 0 0 0 0 0 0 0 0 0 0 0 0 0 0 0 0 0 0 0 0 0 0 0 0 0 0 0 0 0 0 0 0 0 0 0 0 0 0 0 0 0 0 0 0 0 0 0 0 0 0 0 0 0 0 0 0 0 0 0 0 0 0 0 0 0 0 0 0 0 0 0 0 0 0 0 0 0 0 0 0 0 0 0 0 0 0 0 0 0 0 0 0 0 0 0 0 0 0 0 0 0 0 0 0 0 0 0 0 0 0 0 0 0 0 0 0 0 0 0 0 0 0 0 0 0 0 0 0 0 0 0 0 0 0 0 0 0 0 0 0 0 0 0 0 0 0 0 0 0 0 0 0 0 0 0 0 0 0 0 0 0 0 0 0 0 0 0 0 0 0 0 0 0 0 0 0 0 0 0 0 0 0 0 0 0 0 0 0 0 0 0 0 0 0 0 0 0 0 0 0 0 0 0 0 0 0 0 0 0 0 0 0 0 0 0 0 0 0 0 0 0 0 0 0 0 0 0 0 0 0 0 0 0 0 0 0 0 0 0 0 0 0 0 0 0 0 0 0 0 0 0 0 0 0 0 0 0 0 0 0 0 0 0 0 0 0 0 0 0 0 0 0 0 0 0 0 0 0 0 0 0 0 0 0 0 0 0 0 0 0 0 0 0 0 0 0 0 0 0 0 0 0 0 0 0 0 0 0 0 0 0 0 0 0 0 0 0 0 0 0 0 0 0 0 0 0 0 0 0 0 0 0 0 0 0 0 0 0 0 0 0 0 0 0 0 0 0 0 0 0 0 0 0 0 0 0 0 0 0 0 0 0 0 0 0 0 0 0 0 0 0 0 0 0 0 0 0 0 0 0 0 0 0 0 0 0 0 0 0 0 0 0 0 0 0 0 0 0 0 0 0 0 0 0 0 0 0 0 0 0 0 0 0 0 0 0 0 0 0 0 0 0 0 0 0 0 0 0 0 0 0 0 0 0 0 0 0 0 0 0 0 0 0 0 0 0 0 0 0 0 0 0 0 0 0 0 0 0 0 0 0 0 0 0 0 0 0 0 0 0 0 0 0 0 0 0 0 0 0 0 0 0 0 0 0 0 0 0 0 0 0 0 0 0 0 0 0 0 0 0 0 0 0 0 0 0 0 0 0 0 0 0 0 0 0 0 0 0 0 0 0 0 0 0 0 0 0 0 0 0 0 0 0 0 0 0 0 0 0 0 0 0 0 0 0 0 0 0 0 0 0 0 0 0 0 0 0 0 0 0 0 0 0 0 0 0 0 0 0 0 0 0 0 0 0 0 0 0 0 0 0 0 0 0 0 0 0 0 0 0 0 0 0 0 0 0 0 0 0 0 0 0 0 0 0 0 0 0 0 0 0 0 0 0 0 0 0 0 0 0 0 0 0 0 0 0 0 0 0 0 0 0 0 0 0 0 0 0 0 0 0 0 0 0 0 0 0 0 0 0 0 0 0 0 0 0 0 0 0 0 0 0 0 0 0 0 0 0 0 0 0 0 0 0 0 0 0 0 0 0 0 0 0 0 0 0 0 0 0 0 0 0 0 0 0 0 0 0 0 0 0 0 0 0 0 0 0 0 0 0 0 0 0 0 0 0 0 0 0 0 0 0 0 0 0 0 0 0 0 0 0 0 0 0 0 0 0 0 0 0 0 0 0 0 0 0 0 0 0 0 0 0 0 0 0 0 0 0 0 0 0 0 0 0 0 0 0 0 0 0 0 0 0 0 0 0 0 0 0 0 0 0 0 0 0 0 0 0 0 0 0 0 0 0 0 0 0 0 0 0 0 0 0 0 0 0 0 0 0 0 0 0 0 0 0 0 0 0 0 0 0 0 0 0 0 0 0 0 0 0 0 0 0 0 0 0 0 0 0 0 0 0 0 0 0 0 0 0 0 0 0 0 0 0 0 0 0 0 0 0 0 0 0 0 0 0 0 0 0 0 0 0 0 0 0 0 0 0 0 0 0 0 0 0 0 0 0 0 0 0 0 0 0 0 0 0 0 0 0 0 0 0 0 0 0 0 0 0 0 0 0 0 0 0 0 0 0 0 0 0 0 0 0 0 0 0 0 0 0 0 0 0 0 0 0 0 0 0 0 0 0 0 0 0 0 0 0 0 0 0 0 0 0 0 0 0 0 0 0 0 0 0 0 0 0 0 0 0 0 0 0 0 0 0 0 0 0 0 0 0 0 0 0 0 0 0 0 0 0 0 0 0 0 0 0 0 0 0 0 0 0 0 0 0 0 0 0 0 0 0 0 0 0 0 0 0 0 0 0 0 0 0 0 0 0 0 0 0 0 0 0 0 0 0 0 0 0 0 0 0 0 0 0 0 0 0 0 0 0 0 0 0 0 0 0 0 0 0 0 0 0 0 0 0 0 0 0 0 0 0 0 0 0 0 0 0 0 0 0 0 0 0 0 0 0 0 0 0 0 0 0 0 0 0 0 0 0 0 0 0 0 0 0 0 0 0 0 0 0 0 0 0 0 0 0 0 0 0 0 0 0 0 0 0 0 0 0 0 0 0 0 0 0 0 0 0 0 0 0 0 0 0 0 0 0 0 0 0 0 0 0 0 0 0 0 0 0 0 0 0 0 0 0 0 0 0 0 0 0 0 0 0 0 0 0 0 0 0 0 0 0 0 0 0 0 0 0 0 0 0 0 0 0 0 0 0 0 0 0 0 0 0 0 0 0 0 0 0 0 0 0 0 0 0 0 0 0 0 0 0 0 0 0 0 0 0 0 0 0 0 0 0 0 0 0 0 0 0 0 0 0 0 0 0 0 0 0 0 0 0 0 0 0 0 0 0 0 0 0 0 0 0 0 0 0 0 0 0 0 0 0 0 0 0 0 0 0 0 0 0 0 0 0 0 0 0 0 0 0 0 0 0 0 0 0 0 0 0 0 0 0 0 0 0 0 0 0 0 0 0 0 0 0 0 0 0 0 0 0 0 0 0 0 0 0 0 0 0 0 0 0 0 0 0 0 0 0 0 0 0 0 0 0 0 0 0 0 0 0 0 0 0 0 0 0 0 0 0 0 0 0 0 0 0 0 0 0 0 0 0 0 0 0 0 0 0 0 0 0 0 0 0 0 0 0 0 0 0 0 0 0 0 0 0 0 0 0 0 0 0 0 0 0 0 0 0 0 0 0 0 0 0 0 0 0 0 0 0 0 0 0 0 0 0 0 0 0 0 0 0 0 0 0 0 0 0 0 0 0 0 0 0 0 0 0 0 0 0 0 0 0 0 0 0 0 0 0 0 0 0 0 0 0 0 0 0 0 0 0 0 0 0 0 0 0 0 0 0 0 0 0 0 0 0 0 0 0 0 0 0 0 0 0 0 0 0 0 0 0 0 0 0 0 0 0 0 0 0 0 0 0 0 0 0 0 0 0 0 0 0 0 0 0 0 0 0 0 0 0 0 0 0 0 0 0 0 0 0 0 0 0 0 0 0 0 0 0 0 0 0 0 0 0 0 0 0 0 0 0 0 0 0 0 0 0 0 0 0 0 0 0 0 0 0 0 0 0 0 0 0 0 0 0 0 0 0 0 0 0 0 0 0 0 0 0 0 0 0 0 0 0 0 0 0 0 0 0 0 0 0 0 0 0 0 0 0 0 0 0 0 0 0 0 0 0 0 0 0 0 0 0 0 0 0 0 0 0 0 0 0 0 0 0 0 0 0 0 0 0 0 0 0 0 0 0 0 0 0 0 0 0 0 0 0 0 0 0 0 0 0 0 0 0 0 0 0 0 0 0 0 0 0 0 0 0 0 0 0 0 0 0 0 0 0 0 0 0 0 0 0 0 0 0 0 0 0 0 0 0 0 0 0 0 0 0 0 0 0 0 0 0 0 0 0 0 0 0 0 0 0 0 0 0 0 0 0 0 0 0 0 0 0 0 0 0 0 0 0 0 0 0 0 0 0 0 0 0 0 0 0 0 0 0 0 0 0 0 0 0 0 0 0 0 0 0 0 0 0 0 0 0 0 0 0 0 0 0 0 0 0 0 0 0 0 0 0 0 0 0 0 0 0 0 0 0 0 0 0 0 0 0 0 0 0 0 0 0 0 0 0 0 0 0 0 0 0 0 0 0 0 0 0 0 0 0 0 0 0 0 0 0 0 0 0 0 0 0 0 0 0 0 0 0 0 0 0 0 0 0 0 0 0 0 0 0 0 0 0 0 0 0 0 0 0 0 0 0 0 0 0 0 0 0 0 0 0 0 0 0 0 0 0 0 0 0 0 0 0 0 0 0 0 0 0 0 0 0 0 0 0 0 0 0 0 0 0 0 0 0 0 0 0 0 0 0 0 0 0 0 0 0 0 0 0 0 0 0 0 0 0 0 0 0 0 0 0 0 0 0 0 0 0 0 0 0 0 0 0 0 0 0 0 0 0 0 0 0 0 0 0 0 0 0 0 0 0 0 0 0 0 0 0 0 0 0 0 0 0 0 0 0 0 0 0 0 0 0 0 0 0 0 0 0 0 0 0 0 0 0 0 0 0 0 0 0 0 0 0 0 0 0 0 0 0 0 0 0 0 0 0 0 0 0 0 0 0 0 0 0 0 0 0 0 0 0 0 0 0 0 0 0 0 0 0 0 0 0 0 0 0 0 0 0 0 0 0 0 0 0 0 0 0 0 0 0 0 0 0 0 0 0 0 0 0 0 0 0 0 0 0 0 0 0 0 0 0 0 0 0 0 0 0 0 0 0 0 0 0 0 0 0 0 0 0 0 0 0 0 0 0 0 0 0 0 0 0 0 0 0 0 0 0 0 0 0 0 0 0 0 0 0 0 0 0 0 0 0 0 0 0 0 0 0 0 0 0 0 0 0 0 0 0 0 0 0 0 0 0 0 0 0 0 0 0 0 0 0 0 0 0 0 0 0 0 0 0 0 0 0 0 0 0 0 0 0 0 0 0 0 0 0 0 0 0 0 0 0 0 0 0 0 0 0 0 0 0 0 0 0 0 0 0 0 0 0 0 0 0 0 0 0 0 0 0 0 0 0 0 0 0 0 0 0 0 0 0 0 0 0 0 0 0 0 0 0 0 0 0 0 0 0 0 0 0 0 0 0 0 0 0 0 0 0 0 0 0 0 0 0 0 0 0 0 0 0 0 0 0 0 0 0 0 0 0 0 0 0 0 0 0 0 0 0 0 0 0 0 0 0 0 0 0 0 0 0 0 0 0 0 0 0 0 0 0 0 0 0 0 0 0 0 0 0 0 0 0 0 0 0 0 0 0 0 0 0 0 0 0 0 0 0 0 0 0 0 0 0 0 0 0 0 0 0 0 0 0 0 0 0 0 0 0 0 0 0 0 0 0 0 0 0 0 0 0 0 0 0 0 0 0 0 0 0 0 0 0 0 0 0 0 0 0 0 0 0 0 0 0 0 0 0 0 0 0 0 0 0 0 0 0 0 0 0 0 0 0 0 0 0 0 0 0 0 0 0 0 0 0 0 0 0 0 0 0 0 0 0 0 0 0 0 0 0 0 0 0 0 0 0 0 0 0 0 0 0 0 0 0 0 0 0 0 0 0 0 0 0 0 0 0 0 0 0 0 0 0 0 0 0 0 0 0 0 0 0 0 0 0 0 0 0 0 0 0 0 0 0 0 0 0 0 0 0 0 0 0 0 0 0 0 0 0 0 0 0 0 0 0 0 0 0 0 0 0 0 0 0 0 0 0 0 0 0 0 0 0 0 0 0 0 0 0 0 0 0 0 0 0 0 0 0 0 0 0 0 0 0 0 0 0 0 0 0 0 0 0 0 0 0 0 0 0 0 0 0 0 0 0 0 0 0 0 0 0 0 0 0 0 0 0 0 0 0 0 0 0 0 0 0 0 0 0 0 0 0 0 0 0 0 0 0 0 0 0 0 0 0 0 0 0 0 0 0 0 0 0 0 0 0 0 0 0 0 0 0 0 0 0 0 0 0 0 0 0 0 0 0 0 0 0 0 0 0 0 0 0 0 0 0 0 0 0 0 0 0 0 0 0 0 0 0 0 0 0 0 0 0 0 0 0 0 0 0 0 0 0 0 0 0 0 0 0 0 0 0 0 0 0 0 0 0 0 0 0 0 0 0 0 0 0 0 0 0 0 0 0 0 0 0 0 0 0 0 0 0 0 0 0 0 0 0 0 0 0 0 0 0 0 0 0 0 0 0 0 0 0 0 0 0 0 0 0 0 0 0 0 0 0 0 0 0 0 0 0 0 0 0 0 0 0 0 0 0 0 0 0 0 0 0 0 0 0 0 0 0 0 0 0 0 0 0 0 0 0 0 0 0 0 0 0 0 0 0 0 0 0 0 0 0 0 0 0 0 0 0 0 0 0 0 0 0 0 0 0 0 0 0 0 0 0 0 0 0 0 0 0 0 0 0 0 0 0 0 0 0 0 0 0 0 0 0 0 0 0 0 0 0 0 0 0 0 0 0 0 0 0 0 0 0 0 0 0 0 0 0 0 0 0 0 0 0 0 0 0 0 0 0 0 0 0 0 0 0 0 0 0 0 0 0 0 0 0 0 0 0 0 0 0 0 0 0 0 0 0 0 0 0 0 0 0 0 0 0 0 0 0 0 0 0 0 0 0 0 0 0 0 0 0 0 0 0 0 0 0 0 0 0 0 0 0 0 0 0 0 0 0 0 0 0 0 0 0 0 0 0 0 0 0 0 0 0 0 0 0 0 0 0 0 0 0 0 0 0 0 0 0 0 0 0 0 0 0 0 0 0 0 0 0 0 0 0 0 0 0 0 0 0 0 0 0 0 0 0 0 0 0 0 0 0 0 0 0 0 0 0 0 0 0 0 0 0 0 0 0 0 0 0 0 0 0 0 0 0 0 0 0 0 0 0 0 0 0 0 0 0 0 0 0 0 0 0 0 0 0 0 0 0 0 0 0 0 0 0 0 0 0 0 0 0 0 0 0 0 0 0 0 0 0 0 0 0 0 0 0 0 0 0 0 0 0 0 0 0 0 0 0 0 0 0 0 0 0 0 0 0 0 0 0 0 0 0 0 0 0 0 0 0 0 0 0 0 0 0 0 0 0 0 0 0 0 0 0 0 0 0 0 0 0 0 0 0 0 0 0 0 0 0 0 0 0 0 0 0 0 0 0 0 0 0 0 0 0 0 0 0 0 0 0 0 0 0 0 0 0 0 0 0 0 0 0 0 0 0 0 0 0 0 0 0 0 0 0 0 0 0 0 0 0 0 0 0 0 0 0 0 0 0 0 0 0 0 0 0 0 0 0 0 0 0 0 0 0 0 0 0 0 0 0 0 0 0 0 0 0 0 0 0 0 0 0 0 0 0 0 0 0 0 0 0 0 0 0 0 0 0 0 0 0 0 0 0 0 0 0 0 0 0 0 0 0 0 0 0 0 0 0 0 0 0 0 0 0 0 0 0 0 0 0 0 0 0 0 0 0 0 0 0 0 0 0 0 0 0 0 0 0 0 0 0 0 0 0 0 0 0 0 0 0 0 0 0 0 0 0 0 0 0 0 0 0 0 0 0 0 0 0 0 0 0 0 0 0 0 0 0 0 0 0 0 0 0 0 0 0 0 0 0 0 0 0 0 0 0 0 0 0 0 0 0 0 0 0 0 0 0 0 0 0 0 0 0 0 0 0 0 0 0 0 0 0 0 0 0 0 0 0 0 0 0 0 0 0 0 0 0 0 0 0 0 0 0 0 0 0 0 0 0 0 0 0 0 0 0 0 0 0 0 0 0 0 0 0 0 0 0 0 0 0 0 0 0 0 0 0 0 0 0 0 0 0 0 0 0 0 0 0 0 0 0 0 0 0 0 0 0 0 0 0 0 0 0 0 0 0 0 0 0 0 0 0 0 0 0 0 0 0 0 0 0 0 0 0 0 0 0 0 0 0 0 0 0 0 0 0 0 0 0 0 0 0 0 0 0 0 0 0 0 0 0 0 0 0 0 0 0 0 0 0 0 0 0 0 0 0 0 0 0 0 0 0 0 0 0 0 0 0 0 0 0 0 0 0 0 0 0 0 0 0 0 0 0 0 0 0 0 0 0 0 0 0 0 0 0 0 0 0 0 0 0 0 0 0 0 0 0 0 0 0 0 0 0 0 0 0 0 0 0 0 0 0 0 0 0 0 0 0 0 0 0 0 0 0 0 0 0 0 0 0 0 0 0 0 0 0 0 0 0 0 0 0 0 0 0 0 0 0 0 0 0 0 0 0 0 0 0 0 0 0 0 0 0 0 0 0 0 0 0 0 0 0 0 0 0 0 0 0 0 0 0 0 0 0 0 0 0 0 0 0 0 0 0 0 0 0 0 0 0 0 0 0 0 0 0 0 0 0 0 0 0 0 0 0 0 0 0 0 0 0 0 0 0 0 0 0 0 0 0 0 0 0 0 0 0 0 0 0 0 0 0 0 0 0 0 0 0 0 0 0 0 0 0 0 0 0 0 0 0 0 0 0 0 0 0 0 0 0 0 0 0 0 0 0 0 0 0 0 0 0 0 0 0 0 0 0 0 0 0 0 0 0 0 0 0 0 0 0 0 0 0 0 0 0 0 0 0 0 0 0 0 0 0 0 0 0 0 0 0 0 0 0 0 0 0 0 0 0 0 0 0 0 0 0 0 0 0 0 0 0 0 0 0 0 0 0 0 0 0 0 0 0 0 0 0 0 0 0 0 0 0 0 0 0 0 0 0 0 0 0 0 0 0 0 0 0 0 0 0 0 0 0 0 0 0 0 0 0 0 0 0 0 0 0 0 0 0 0 0 0 0 0 0 0 0 0 0 0 0 0 0 0 0 0 0 0 0 0 0 0 0 0 0 0 0 0 0 0 0 0 0 0 0 0 0 0 0 0 0 0 0 0 0 0 0 0 0 0 0 0 0 0 0 0 0 0 0 0 0 0 0 0 0 0 0 0 0 0 0 0 0 0 0 0 0 0 0 0 0 0 0 0 0 0 0 0 0 0 0 0 0 0 0 0 0 0 0 0 0 0 0 0 0 0 0 0 0 0 0 0 0 0 0 0 0 0 0 0 0 0 0 0 0 0 0 0 0 0 0 0 0 0 0 0 0 0 0 0 0 0 0 0 0 0 0 0 0 0 0 0 0 0 0 0 0 0 0 0 0 0 0 0 0 0 0 0 0 0 0 0 0 0 0 0 0 0 0 0 0 0 0 0 0 0 0 0 0 0 0 0 0 0 0 0 0 0 0 0 0 0 0 0 0 0 0 0 0 0 0 0 0 0 0 0 0 0 0 0 0 0 0 0 0 0 0 0 0 0 0 0 0 0 0 0 0 0 0 0 0 0 0 0 0 0 0 0 0 0 0 0 0 0 0 0 0 0 0 0 0 0 0 0 0 0 0 0 0 0 0 0 0 0 0 0 0 0 0 0 0 0 0 0 0 0 0 0 0 0 0 0 0 0 0 0 0 0 0 0 0 0 0 0 0 0 0 0 0 0 0 0 0 0 0 0 0 0 0 0 0 0 0 0 0 0 0 0 0 0 0 0 0 0 0 0 0 0 0 0 0 0 0 0 0 0 0 0 0 0 0 0 0 0 0 0 0 0 0 0 0 0 0 0 0 0 0 0 0 0 0 0 0 0 0 0 0 0 0 0 0 0 0 0 0 0 0 0 0 0 0 0 0 0 0 0 0 0 0 0 0 0 0 0 0 0 0 0 0 0 0 0 0 0 0 0 0 0 0 0 0 0 0 0 0 0 0 0 0 0 0 0 0 0 0 0 0 0 0 0 0 0 0 0 0 0 0 0 0 0 0 0 0 0 0 0 0 0 0 0 0 0 0 0 0 0 0 0 0 0 0 0 0 0 0 0 0 0 0 0 0 0 0 0 0 0 0 0 0 0 0 0 0 0 0 0 0 0 0 0 0 0 0 0 0 0 0 0 0 0 0 0 0 0 0 0 0 0 0 0 0 0 0 0 0 0 0 0 0 0 0 0 0 0 0 0 0 0 0 0 0 0 0 0 0 0 0 0 0 0 0 0 0 0 0 0 0 0 0 0 0 0 0 0 0 0 0 0 0 0 0 0 0 0 0 0 0 0 0 0 0 0 0 0 0 0 0 0 0 0 0 0 0 0 0 0 0 0 0 0 0 0 0 0 0 0 0 0 0 0 0 0 0 0 0 0 0 0 0 0 0 0 0 0 0 0 0 0 0 0 0 0 0 0 0 0 0 0 0 0 0 0 0 0 0 0 0 0 0 0 0 0 0 0 0 0 0 0 0 0 0 0 0 0 0 0 0 0 0 0 0 0 0 0 0 0 0 0 0 0 0 0 0 0 0 0 0 0 0 0 0 0 0 0 0 0 0 0 0 0 0 0 0 0 0 0 0 0 0 0 0 0 0 0 0 0 0 0 0 0 0 0 0 0 0 0 0 0 0 0 0 0 0 0 0 0 0 0 0 0 0 0 0 0 0 0 0 0 0 0 0 0 0 0 0 0 0 0 0 0 0 0 0 0 0 0 0 0 0 0 0 0 0 0 0 0 0 0 0 0 0 0 0 0 0 0 0 0 0 0 0 0 0 0 0 0 0 0 0 0 0 0 0 0 0 0 0 0 0 0 0 0 0 0 0 0 0 0 0 0 0 0 0 0 0 0 0 0 0 0 0 0 0 0 0 0 0 0 0 0 0 0 0 0 0 0 0 0 0 0 0 0 0 0 0 0 0 0 0 0 0 0 0 0 0 0 0 0 0 0 0 0 0 0 0 0 0 0 0 0 0 0 0 0 0 0 0 0 0 0 0 0 0 0 0 0 0 0 0 0 0 0 0 0 0 0 0 0 0 0 0 0 0 0 0 0 0 0 0 0 0 0 0 0 0 0 0 0 0 0 0 0 0 0 0 0 0 0 0 0 0 0 0 0 0 0 0 0 0 0 0 0 0 0 0 0 0 0 0 0 0 0 0 0 0 0 0 0 0 0 0 0 0 0 0 0 0 0 0 0 0 0 0 0 0 0 0 0 0 0 0 0 0 0 0 0 0 0 0 0 0 0 0 0 0 0 0 0 0 0 0 0 0 0 0 0 0 0 0 0 0 0 0 0 0 0 0 0 0 0 0 0 0 0 0 0 0 0 0 0 0 0 0 0 0 0 0 0 0 0 0 0 0 0 0 0 0 0 0 0 0 0 0 0 0 0 0 0 0 0 0 0 0 0 0 0 0 0 0 0 0 0 0 0 0 0 0 0 0 0 0 0 0 0 0 0 0 0 0 0 0 0 0 0 0 0 0 0 0 0 0 0 0 0 0 0 0 0 0 0 0 0 0 0 0 0 0 0 0 0 0 0 0 0 0 0 0 0 0 0 0 0 0 0 0 0 0 0 0 0 0 0 0 0 0 0 0 0 0 0 0 0 0 0 0 0 0 0 0 0 0 0 0 0 0 0 0 0 0 0 0 0 0 0 0 0 0 0 0 0 0 0 0 0 0 0 0 0 0 0 0 0 0 0 0 0 0 0 0 0 0 0 0 0 0 0 0 0 0 0 0 0 0 0 0 0 0 0 0 0 0 0 0 0 0 0 0 0 0 0 0 0 0 0 0 0 0 0 0 0 0 0 0 0 0 0 0 0 0 0 0 0 0 0 0 0 0 0 0 0 0 0 0 0 0 0 0 0 0 0 0 0 0 0 0 0 0 0 0 0 0 0 0 0 0 0 0 0 0 0 0 0 0 0 0 0 0 0 0 0 0 0 0 0 0 0 0 0 0 0 0 0 0 0 0 0 0 0 0 0 0 0 0 0 0 0 0 0 0 0 0 0 0 0 0 0 0 0 0 0 0 0 0 0 0 0 0 0 0 0 0 0 0 0 0 0 0 0 0 0 0 0 0 0 0 0 0 0 0 0 0 0 0 0 0 0 0 0 0 0 0 0 0 0 0 0 0 0 0 0 0 0 0 0 0 0 0 0 0 0 0 0 0 0 0 0 0 0 0 0 0 0 0 0 0 0 0 0 0 0 0 0 0 0 0 0 0 0 0 0 0 0 0 0 0 0 0 0 0 0 0 0 0 0 0 0 0 0 0 0 0 0 0 0 0 0 0 0 0 0 0 0 0 0 0 0 0 0 0 0 0 0 0 0 0 0 0 0 0 0 0 0 0 0 0 0 0 0 0 0 0 0 0 0 0 0 0 0 0 0 0 0 0 0 0 0 0 0 0 0 0 0 0 0 0 0 0 0 0 0 0 0 0 0 0 0 0 0 0 0 0 0 0 0 0 0 0 0 0 0 0 0 0 0 0 0 0 0 0 0 0 0 0 0 0 0 0 0 0 0 0 0 0 0 0 0 0 0 0 0 0 0 0 0 0 0 0 0 0 0 0 0 0 0 0 0 0 0 0 0 0 0 0 0 0 0 0 0 0 0 0 0 0 0 0 0 0 0 0 0 0 0 0 0 0 0 0 0 0 0 0 0 0 0 0 0 0 0 0 0 0 0 0 0 0 0 0 0 0 0 0 0 0 0 0 0 0 0 0 0 0 0 0 0 0 0 0 0 0 0 0 0 0 0 0 0 0 0 0 0 0 0 0 0 0 0 0 0 0 0 0 0 0 0 0 0 0 0 0 0 0 0 0 0 0 0 0 0 0 0 0 0 0 0 0 0 0 0 0 0 0 0 0 0 0 0 0 0 0 0 0 0 0 0 0 0 0 0 0 0 0 0 0 0 0 0 0 0 0 0 0 0 0 0 0 0 0 0 0 0 0 0 0 0 0 0 0 0 0 0 0 0 0 0 0 0 0 0 0 0 0 0 0 0 0 0 0 0 0 0 0 0 0 0 0 0 0 0 0 0 0 0 0 0 0 0 0 0 0 0 0 0 0 0 0 0 0 0 0 0 0 0 0 0 0 0 0 0 0 0 0 0 0 0 0 0 0 0 0 0 0 0 0 0 0 0 0 0 0 0 0 0 0 0 0 0 0 0 0 0 0 0 0 0 0 0 0 0 0 0 0 0 0 0 0 0 0 0 0 0 0 0 0 0 0 0 0 0 0 0 0 0 0 0 0 0 0 0 0 0 0 0 0 0 0 0 0 0 0 0 0 0 0 0 0 0 0 0 0 0 0 0 0 0 0 0 0 0 0 0 0 0 0 0 0 0 0 0 0 0 0 0 0 0 0 0 0 0 0 0 0 0 0 0 0 0 0 0 0 0 0 0 0 0 0 0 0 0 0 0 0 0 0 0 0 0 0 0 0 0 0 0 0 0 0 0 0 0 0 0 0 0 0 0 0 0 0 0 0 0 0 0 0 0 0 0 0 0 0 0 0 0 0 0 0 0 0 0 0 0 0 0 0 0 0 0 0 0 0 0 0 0 0 0 0 0 0 0 0 0 0 0 0 0 0 0 0 0 0 0 0 0 0 0 0 0 0 0 0 0 0 0 0 0 0 0 0 0 0 0 0 0 0 0 0 0 0 0 0 0 0 0 0 0 0 0 0 0 0 0 0 0 0 0 0 0 0 0 0 0 0 0 0 0 0 0 0 0 0 0 0 0 0 0 0 0 0 0 0 0 0 0 0 0 0 0 0 0 0 0 0 0 0 0 0 0 0 0 0 0 0 0 0 0 0 0 0 0 0 0 0 0 0 0 0 0 0 0 0 0 0 0 0 0 0 0 0 0 0 0 0 0 0 0 0 0 0 0 0 0 0 0 0 0 0 0 0 0 0 0 0 0 0 0 0 0 0 0 0 0 0 0 0 0 0 0 0 0 0 0 0 0 0 0 0 0 0 0 0 0 0 0 0 0 0 0 0 0 0 0 0 0 0 0 0 0 0 0 0 0 0 0 0 0 0 0 0 0 0 0 0 0 0 0 0 0 0 0 0 0 0 0 0 0 0 0 0 0 0 0 0 0 0 0 0 0 0 0 0 0 0 0 0 0 0 0 0 0 0 0 0 0 0 0 0 0 0 0 0 0 0 0 0 0 0 0 0 0 0 0 0 0 0 0 0 0 0 0 0 0 0 0 0 0 0 0 0 0 0 0 0 0 0 0 0 0 0 0 0 0 0 0 0 0 0 0 0 0 0 0 0 0 0 0 0 0 0 0 0 0 0 0 0 0 0 0 0 0 0 0 0 0 0 0 0 0 0 0 0 0 0 0 0 0 0 0 0 0 0 0 0 0 0 0 0 0 0 0 0 0 0 0 0 0 0 0 0 0 0 0 0 0 0 0 0 0 0 0 0 0 0 0 0 0 0 0 0 0 0 0 0 0 0 0 0 0 0 0 0 0 0 0 0 0 0 0 0 0 0 0 0 0 0 0 0 0 0 0 0 0 0 0 0 0 0 0 0 0 0 0 0 0 0 0 0 0 0 0 0 0 0 0 0 0 0 0 0 0 0 0 0 0 0 0 0 0 0 0 0 0 0 0 0 0 0 0 0 0 0 0 0 0 0 0 0 0 0 0 0 0 0 0 0 0 0 0 0 0 0 0 0 0 0 0 0 0 0 0 0 0 0 0 0 0 0 0 0 0 0 0 0 0 0 0 0 0 0 0 0 0 0 0 0 0 0 0 0 0 0 0 0 0 0 0 0 0 0 0 0 0 0 0 0 0 0 0 0 0 0 0 0 0 0 0 0 0 0 0 0 0 0 0 0 0 0 0 0 0 0 0 0 0 0 0 0 0 0 0 0 0 0 0 0 0 0 0 0 0 0 0 0 0 0 0 0 0 0 0 0 0 0 0 0 0 0 0 0 0 0 0 0 0 0 0 0 0 0 0 0 0 0 0 0 0 0 0 0 0 0 0 0 0 0 0 0 0 0 0 0 0 0 0 0 0 0 0 0 0 0 0 0 0 0 0 0 0 0 0 0 0 0 0 0 0 0 0 0 0 0 0 0 0 0 0 0 0 0 0 0 0 0 0 0 0 0 0 0 0 0 0 0 0 0 0 0 0 0 0 0 0 0 0 0 0 0 0 0 0 0 0 0 0 0 0 0 0 0 0 0 0 0 0 0 0 0 0 0 0 0 0 0 0 0 0 0 0 0 0 0 0 0 0 0 0 0 0 0 0 0 0 0 0 0 0 0 0 0 0 0 0 0 0 0 0 0 0 0 0 0 0 0 0 0 0 0 0 0 0 0 0 0 0 0 0 0 0 0 0 0 0 0 0 0 0 0 0 0 0 0 0 0 0 0 0 0 0 0 0 0 0 0 0 0 0 0 0 0 0 0 0 0 0 0 0 0 0 0 0 0 0 0 0 0 0 0 0 0 0 0 0 0 0 0 0 0 0 0 0 0 0 0 0 0 0 0 0 0 0 0 0 0 0 0 0 0 0 0 0 0 0 0 0 0 0 0 0 0 0 0 0 0 0 0 0 0 0 0 0 0 0 0 0 0 0 0 0 0 0 0 0 0 0 0 0 0 0 0 0 0 0 0 0 0 0 0 0 0 0 0 0 0 0 0 0 0 0 0 0 0 0 0 0 0 0 0 0 0 0 0 0 0 0 0 0 0 0 0 0 0 0 0 0 0 0 0 0 0 0 0 0 0 0 0 0 0 0 0 0 0 0 0 0 0 0 0 0 0 0 0 0 0 0 0 0 0 0 0 0 0 0 0 0 0 0 0 0 0 0 0 0 0 0 0 0 0 0 0 0 0 0 0 0 0 0 0 0 0 0 0 0 0 0 0 0 0 0 0 0 0 0 0 0 0 0 0 0 0 0 0 0 0 0 0 0 0 0 0 0 0 0 0 0 0 0 0 0 0 0 0 0 0 0 0 0 0 0 0 0 0 0 0 0 0 0 0 0 0 0 0 0 0 0 0 0 0 0 0 0 0 0 0 0 0 0 0 0 0 0 0 0 0 0 0 0 0 0 0 0 0 0 0 0 0 0 0 0 0 0 0 0 0 0 0 0 0 0 0 0 0 0 0 0 0 0 0 0 0 0 0 0 0 0 0 0 0 0 0 0 0 0 0 0 0 0 0 0 0 0 0 0 0 0 0 0 0 0 0 0 0 0 0 0 0 0 0 0 0 0 0 0 0 0 0 0 0 0 0 0 0 0 0 0 0 0 0 0 0 0 0 0 0 0 0 0 0 0 0 0 0 0 0 0 0 0 0 0 0 0 0 0 0 0 0 0 0 0 0 0 0 0 0 0 0 0 0 0 0 0 0 0 0 0 0 0 0 0 0 0 0 0 0 0 0 0 0 0 0 0 0 0 0 0 0 0 0 0 0 0 0 0 0 0 0 0 0 0 0 0 0 0 0 0 0 0 0 0 0 0 0 0 0 0 0 0 0 0 0 0 0 0 0 0 0 0 0 0 0 0 0 0 0 0 0 0 0 0 0 0 0 0 0 0 0 0 0 0 0 0 0 0 0 0 0 0 0 0 0 0 0 0 0 0 0 0 0 0 0 0 0 0 0 0 0 0 0 0 0 0 0 0 0 0 0 0 0 0 0 0 0 0 0 0 0 0 0 0 0 0 0 0 0 0 0 0 0 0 0 0 0 0 0 0 0 0 0 0 0 0 0 0 0 0 0 0 0 0 0 0 0 0 0 0 0 0 0 0 0 0 0 0 0 0 0 0 0 0 0 0 0 0 0 0 0 0 0 0 0 0 0 0 0 0 0 0 0 0 0 0 0 0 0 0 0 0 0 0 0 0 0 0 0 0 0 0 0 0 0 0 0 0 0 0 0 0 0 0 0 0 0 0 0 0 0 0 0 0 0 0 0 0 0 0 0 0 0 0 0 0 0 0 0 0 0 0 0 0 0 0 0 0 0 0 0 0 0 0 0 0 0 0 0 0 0 0 0 0 0 0 0 0 0 0 0 0 0 0 0 0 0 0 0 0 0 0 0 0 0 0 0 0 0 0 0 0 0 0 0 0 0 0 0 0 0 0 0 0 0 0 0 0 0 0 0 0 0 0 0 0 0 0 0 0 0 0 0 0 0 0 0 0 0 0 0 0 0 0 0 0 0 0 0 0 0 0 0 0 0 0 0 0 0 0 0 0 0 0 0 0 0 0 0 0 0 0 0 0 0 0 0 0 0 0 0 0 0 0 0 0 0 0 0 0 0 0 0 0 0 0 0 0 0 0 0 0 0 0 0 0 0 0 0 0 0 0 0 0 0 0 0 0 0 0 0 0 0 0 0 0 0 0 0 0 0 0 0 0 0 0 0 0 0 0 0 0 0 0 0 0 0 0 0 0 0 0 0 0 0 0 0 0 0 0 0 0 0 0 0 0 0 0 0 0 0 0 0 0 0 0 0 0 0 0 0 0 0 0 0 0 0 0 0 0 0 0 0 0 0 0 0 0 0 0 0 0 0 0 0 0 0 0 0 0 0 0 0 0 0 0 0 0 0 0 0 0 0 0 0 0 0 0 0 0 0 0 0 0 0 0 0 0 0 0 0 0 0 0 0 0 0 0 0 0 0 0 0 0 0 0 0 0 0 0 0 0 0 0 0 0 0 0 0 0 0 0 0 0 0 0 0 0 0 0 0 0 0 0 0 0 0 0 0 0 0 0 0 0 0 0 0 0 0 0 0 0 0 0 0 0 0 0 0 0 0 0 0 0 0 0 0 0 0 0 0 0 0 0 0 0 0 0 0 0 0 0 0 0 0 0 0 0 0 0 0 0 0 0 0 0 0 0 0 0 0 0 0 0 0 0 0 0 0 0 0 0 0 0 0 0 0 0 0 0 0 0 0 0 0 0 0 0 0 0 0 0 0 0 0 0 0 0 0 0 0 0 0 0 0 0 0 0 0 0 0 0 0 0 0 0 0 0 0 0 0 0 0 0 0 0 0 0 0 0 0 0 0 0 0 0 0 0 0 0 0 0 0 0 0 0 0 0 0 0 0 0 0 0 0 0 0 0 0 0 0 0 0 0 0 0 0 0 0 0 0 0 0 0 0 0 0 0 0 0 0 0 0 0 0 0 0 0 0 0 0 0 0 0 0 0 0 0 0 0 0 0 0 0 0 0 0 0 0 0 0 0 0 0 0 0 0 0 0 0 0 0 0 0 0 0 0 0 0 0 0 0 0 0 0 0 0 0 0 0 0 0 0 0 0 0 0 0 0 0 0 0 0 0 0 0 0 0 0 0 0 0 0 0 0 0 0 0 0 0 0 0 0 0 0 0 0 0 0 0 0 0 0 0 0 0 0 0 0 0 0 0 0 0 0 0 0 0 0 0 0 0 0 0 0 0 0 0 0 0 0 0 0 0 0 0 0 0 0 0 0 0 0 0 0 0 0 0 0 0 0 0 0 0 0 0 0 0 0 0 0 0 0 0 0 0 0 0 0 0 0 0 0 0 0 0 0 0 0 0 0 0 0 0 0 0 0 0 0 0 0 0 0 0 0 0 0 0 0 0 0 0 0 0 0 0 0 0 0 0 0 0 0 0 0 0 0 0 0 0 0 0 0 0 0 0 0 0 0 0 0 0 0 0 0 0 0 0 0 0 0 0 0 0 0 0 0 0 0 0 0 0 0 0 0 0 0 0 0 0 0 0 0 0 0 0 0 0 0 0 0 0 0 0 0 0 0 0 0 0 0 0 0 0 0 0 0 0 0 0 0 0 0 0 0 0 0 0 0 0 0 0 0 0 0 0 0 0 0 0 0 0 0 0 0 0 0 0 0 0 0 0 0 0 0 0 0 0 0 0 0 0 0 0 0 0 0 0 0 0 0 0 0 0 0 0 0 0 0 0 0 0 0 0 0 0 0 0 0 0 0 0 0 0 0 0 0 0 0 0 0 0 0 0 0 0 0 0 0 0 0 0 0 0 0 0 0 0 0 0 0 0 0 0 0 0 0 0 0 0 0 0 0 0 0 0 0 0 0 0 0 0 0 0 0 0 0 0 0 0 0 0 0 0 0 0 0 0 0 0 0 0 0 0 0 0 0 0 0 0 0 0 0 0 0 0 0 0 0 0 0 0 0 0 0 0 0 0 0 0 0 0 0 0 0 0 0 0 0 0 0 0 0 0 0 0 0 0 0 0 0 0 0 0 0 0 0 0 0 0 0 0 0 0 0 0 0 0 0 0 0 0 0 0 0 0 0 0 0 0 0 0 0 0 0 0 0 0 0 0 0 0 0 0 0 0 0 0 0 0 0 0 0 0 0 0 0 0 0 0 0 0 0 0 0 0 0 0 0 0 0 0 0 0 0 0 0 0 0 0 0 0 0 0 0 0 0 0 0 0 0 0 0 0 0 0 0 0 0 0 0 0 0 0 0 0 0 0 0 0 0 0 0 0 0 0 0 0 0 0 0 0 0 0 0 0 0 0 0 0 0 0 0 0 0 0 0 0 0 0 0 0 0 0 0 0 0 0 0 0 0 0 0 0 0 0 0 0 0 0 0 0 0 0 0 0 0 0 0 0 0 0 0 0 0 0 0 0 0 0 0 0 0 0 0 0 0 0 0 0 0 0 0 0 0 0 0 0 0 0 0 0 0 0 0 0 0 0 0 0 0 0 0 0 0 0 0 0 0 0 0 0 0 0 0 0 0 0 0 0 0 0 0 0 0 0 0 0 0 0 0 0 0 0 0 0 0 0 0 0 0 0 0 0 0 0 0 0 0 0 0 0 0 0 0 0 0 0 0 0 0 0 0 0 0 0 0 0 0 0 0 0 0 0 0 0 0 0 0 0 0 0 0 0 0 0 0 0 0 0 0 0 0 0 0 0 0 0 0 0 0 0 0 0 0 0 0 0 0 0 0 0 0 0 0 0 0 0 0 0 0 0 0 0 0 0 0 0 0 0 0 0 0 0 0 0 0 0 0 0 0 0 0 0 0 0 0 0 0 0 0 0 0 0 0 0 0 0 0 0 0 0 0 0 0 0 0 0 0 0 0 0 0 0 0 0 0 0 0 0 0 0 0 0 0 0 0 0 0 0 0 0 0 0 0 0 0 0 0 0 0 0 0 0 0 0 0 0 0 0 0 0 0 0 0 0 0 0 0 0 0 0 0 0 0 0 0 0 0 0 0 0 0 0 0 0 0 0 0 0 0 0 0 0 0 0 0 0 0 0 0 0 0 0 0 0 0 0 0 0 0 0 0 0 0 0 0 0 0 0 0 0 0 0 0 0 0 0 0 0 0 0 0 0 0 0 0 0 0 0 0 0 0 0 0 0 0 0 0 0 0 0 0 0 0 0 0 0 0 0 0 0 0 0 0 0 0 0 0 0 0 0 0 0 0 0 0 0 0 0 0 0 0 0 0 0 0 0 0 0 0 0 0 0 0 0 0 0 0 0 0 0 0 0 0 0 0 0 0 0 0 0 0 0 0 0 0 0 0 0 0 0 0 0 0 0 0 0 0 0 0 0 0 0 0 0 0 0 0 0 0 0 0 0 0 0 0 0 0 0 0 0 0 0 0 0 0 0 0 0 0 0 0 0 0 0 0 0 0 0 0 0 0 0 0 0 0 0 0 0 0 0 0 0 0 0 0 0 0 0 0 0 0 0 0 0 0 0 0 0 0 0 0 0 0 0 0 0 0 0 0 0 0 0 0 0 0 0 0 0 0 0 0 0 0 0 0 0 0 0 0 0 0 0 0 0 0 0 0 0 0 0 0 0 0 0 0 0 0 0 0 0 0 0 0 0 0 0 0 0 0 0 0 0 0 0 0 0 0 0 0 0 0 0 0 0 0 0 0 0 0 0 0 0 0 0 0 0 0 0 0 0 0 0 0 0 0 0 0 0 0 0 0 0 0 0 0 0 0 0 0 0 0 0 0 0 0 0 0 0 0 0 0 0 0 0 0 0 0 0 0 0 0 0 0 0 0 0 0 0 0 0 0 0 0 0 0 0 0 0 0 0 0 0 0 0 0 0 0 0 0 0 0 0 0 0 0 0 0 0 0 0 0 0 0 0 0 0 0 0 0 0 0 0 0 0 0 0 0 0 0 0 0 0 0 0 0 0 0 0 0 0 0 0 0 0 0 0 0 0 0 0 0 0 0 0 0 0 0 0 0 0 0 0 0 0 0 0 0 0 0 0 0 0 0 0 0 0 0 0 0 0 0 0 0 0 0 0 0 0 0 0 0 0 0 0 0 0 0 0 0 0 0 0 0 0 0 0 0 0 0 0 0 0 0 0 0 0 0 0 0 0 0 0 0 0 0 0 0 0 0 0 0 0 0 0 0 0 0 0 0 0 0 0 0 0 0 0 0 0 0 0 0 0 0 0 0 0 0 0 0 0 0 0 0 0 0 0 0 0 0 0 0 0 0 0 0 0 0 0 0 0 0 0 0 0 0 0 0 0 0 0 0 0 0 0 0 0 0 0 0 0 0 0 0 0 0 0 0 0 0 0 0 0 0 0 0 0 0 0 0 0 0 0 0 0 0 0 0 0 0 0 0 0 0 0 0 0 0 0 0 0 0 0 0 0 0 0 0 0 0 0 0 0 0 0 0 0 0 0 0 0 0 0 0 0 0 0 0 0 0 0 0 0 0 0 0 0 0 0 0 0 0 0 0 0 0 0 0 0 0 0 0 0 0 0 0 0 0 0 0 0 0 0 0 0 0 0 0 0 0 0 0 0 0 0 0 0 0 0 0 0 0 0 0 0 0 0 0 0 0 0 0 0 0 0 0 0 0 0 0 0 0 0 0 0 0 0 0 0 0 0 0 0 0 0 0 0 0 0 0 0 0 0 0 0 0 0 0 0 0 0 0 0 0 0 0 0 0 0 0 0 0 0 0 0 0 0 0 0 0 0 0 0 0 0 0 0 0 0 0 0 0 0 0 0 0 0 0 0 0 0 0 0 0 0 0 0 0 0 0 0 0 0 0 0 0 0 0 0 0 0 0 0 0 0 0 0 0 0 0 0 0 0 0 0 0 0 0 0 0 0 0 0 0 0 0 0 0 0 0 0 0 0 0 0 0 0 0 0 0 0 0 0 0 0 0 0 0 0 0 0 0 0 0 0 0 0 0 0 0 0 0 0 0 0 0 0 0 0 0 0 0 0 0 0 0 0 0 0 0 0 0 0 0 0 0 0 0 0 0 0 0 0 0 0 0 0 0 0 0 0 0 0 0 0 0 0 0 0 0 0 0 0 0 0 0 0 0 0 0 0 0 0 0 0 0 0 0 0 0 0 0 0 0 0 0 0 0 0 0 0 0 0 0 0 0 0 0 0 0 0 0 0 0 0 0 0 0 0 0 0 0 0 0 0 0 0 0 0 0 0 0 0 0 0 0 0 0 0 0 0 0 0 0 0 0 0 0 0 0 0 0 0 0 0 0 0 0 0 0 0 0 0 0 0 0 0 0 0 0 0 0 0 0 0 0 0 0 0 0 0 0 0 0 0 0 0 0 0 0 0 0 0 0 0 0 0 0 0 0 0 0 0 0 0 0 0 0 0 0 0 0 0 0 0 0 0 0 0 0 0 0 0 0 0 0 0 0 0 0 0 0 0 0 0 0 0 0 0 0 0 0 0 0 0 0 0 0 0 0 0 0 0 0 0 0 0 0 0 0 0 0 0 0 0 0 0 0 0 0 0 0 0 0 0 0 0 0 0 0 0 0 0 0 0 0 0 0 0 0 0 0 0 0 0 0 0 0 0 0 0 0 0 0 0 0 0 0 0 0 0 0 0 0 0 0 0 0 0 0 0 0 0 0 0 0 0 0 0 0 0 0 0 0 0 0 0 0 0 0 0 0 0 0 0 0 0 0 0 0 0 0 0 0 0 0 0 0 0 0 0 0 0 0 0 0 0 0 0 0 0 0 0 0 0 0 0 0 0 0 0 0 0 0 0 0 0 0 0 0 0 0 0 0 0 0 0 0 0 0 0 0 0 0 0 0 0 0 0 0 0 0 0 0 0 0 0 0 0 0 0 0 0 0 0 0 0 0 0 0 0 0 0 0 0 0 0 0 0 0 0 0 0 0 0 0 0 0 0 0 0 0 0 0 0 0 0 0 0 0 0 0 0 0 0 0 0 0 0 0 0 0 0 0 0 0 0 0 0 0 0 0 0 0 0 0 0 0 0 0 0 0 0 0 0 0 0 0 0 0 0 0 0 0 0 0 0 0 0 0 0 0 0 0 0 0 0 0 0 0 0 0 0 0 0 0 0 0 0 0 0 0 0 0 0 0 0 0 0 0 0 0 0 0 0 0 0 0 0 0 0 0 0 0 0 0 0 0 0 0 0 0 0 0 0 0 0 0 0 0 0 0 0 0 0 0 0 0 0 0 0 0 0 0 0 0 0 0 0 0 0 0 0 0 0 0 0 0 0 0 0 0 0 0 0 0 0 0 0 0 0 0 0 0 0 0 0 0 0 0 0 0 0 0 0 0 0 0 0 0 0 0 0 0 0 0 0 0 0 0 0 0 0 0 0 0 0 0 0 0 0 0 0 0 0 0 0 0 0 0 0 0 0 0 0 0 0 0 0 0 0 0 0 0 0 0 0 0 0 0 0 0 0 0 0 0 0 0 0 0 0 0 0 0 0 0 0 0 0 0 0 0 0 0 0 0 0 0 0 0 0 0 0 0 0 0 0 0 0 0 0 0 0 0 0 0 0 0 0 0 0 0 0 0 0 0 0 0 0 0 0 0 0 0 0 0 0 0 0 0 0 0 0 0 0 0 0 0 0 0 0 0 0 0 0 0 0 0 0 0 0 0 0 0 0 0 0 0 0 0 0 0 0 0 0 0 0 0 0 0 0 0 0 0 0 0 0 0 0 0 0 0 0 0 0 0 0 0 0 0 0 0 0 0 0 0 0 0 0 0 0 0 0 0 0 0 0 0 0 0 0 0 0 0 0 0 0 0 0 0 0 0 0 0 0 0 0 0 0 0 0 0 0 0 0 0 0 0 0 0 0 0 0 0 0 0 0 0 0 0 0 0 0 0 0 0 0 0 0 0 0 0 0 0 0 0 0 0 0 0 0 0 0 0 0 0 0 0 0 0 0 0 0 0 0 0 0 0 0 0 0 0 0 0 0 0 0 0 0 0 0 0 0 0 0 0 0 0 0 0 0 0 0 0 0 0 0 0 0 0 0 0 0 0 0 0 0 0 0 0 0 0 0 0 0 0 0 0 0 0 0 0 0 0 0 0 0 0 0 0 0 0 0 0 0 0 0 0 0 0 0 0 0 0 0 0 0 0 0 0 0 0 0 0 0 0 0 0 0 0 0 0 0 0 0 0 0 0 0 0 0 0 0 0 0 0 0 0 0 0 0 0 0 0 0 0 0 0 0 0 0 0 0 0 0 0 0 0 0 0 0 0 0 0 0 0 0 0 0 0 0 0 0 0 0 0 0 0 0 0 0 0 0 0 0 0 0 0 0 0 0 0 0 0 0 0 0 0 0 0 0 0 0 0 0 0 0 0 0 0 0 0 0 0 0 0 0 0 0 0 0 0 0 0 0 0 0 0 0 0 0 0 0 0 0 0 0 0 0 0 0 0 0 0 0 0 0 0 0 0 0 0 0 0 0 0 0 0 0 0 0 0 0 0 0 0 0 0 0 0 0 0 0 0 0 0 0 0 0 0 0 0 0 0 0 0 0 0 0 0 0 0 0 0 0 0 0 0 0 0 0 0 0 0 0 0 0 0 0 0 0 0 0 0 0 0 0 0 0 0 0 0 0 0 0 0 0 0 0 0 0 0 0 0 0 0 0 0 0 0 0 0 0 0 0 0 0 0 0 0 0 0 0 0 0 0 0 0 0 0 0 0 0 0 0 0 0 0 0 0 0 0 0 0 0 0 0 0 0 0 0 0 0 0 0 0 0 0 0 0 0 0 0 0 0 0 0 0 0 0 0 0 0 0 0 0 0 0 0 0 0 0 0 0 0 0 0 0 0 0 0 0 0 0 0 0 0 0 0 0 0 0 0 0 0 0 0 0 0 0 0 0 0 0 0 0 0 0 0 0 0 0 0 0 0 0 0 0 0 0 0 0 0 0 0 0 0 0 0 0 0 0 0 0 0 0 0 0 0 0 0 0 0 0 0 0 0 0 0 0 0 0 0 0 0 0 0 0 0 0 0 0 0 0 0 0 0 0 0 0 0 0 0 0 0 0 0 0 0 0 0 0 0 0 0 0 0 0 0 0 0 0 0 0 0 0 0 0 0 0 0 0 0 0 0 0 0 0 0 0 0 0 0 0 0 0 0 0 0 0 0 0 0 0 0 0 0 0 0 0 0 0 0 0 0 0 0 0 0 0 0 0 0 0 0 0 0 0 0 0 0 0 0 0 0 0 0 0 0 0 0 0 0 0 0 0 0 0 0 0 0 0 0 0 0 0 0 0 0 0 0 0 0 0 0 0 0 0 0 0 0 0 0 0 0 0 0 0 0 0 0 0 0 0 0 0 0 0 0 0 0 0 0 0 0 0 0 0 0 0 0 0 0 0 0 0 0 0 0 0 0 0 0 0 0 0 0 0 0 0 0 0 0 0 0 0 0 0 0 0 0 0 0 0 0 0 0 0 0 0 0 0 0 0 0 0 0 0 0 0 0 0 0 0 0 0 0 0 0 0 0 0 0 0 0 0 0 0 0 0 0 0 0 0 0 0 0 0 0 0 0 0 0 0 0 0 0 0 0 0 0 0 0 0 0 0 0 0 0 0 0 0 0 0 0 0 0 0 0 0 0 0 0 0 0 0 0 0 0 0 0 0 0 0 0 0 0 0 0 0 0 0 0 0 0 0 0 0 0 0 0 0 0 0 0 0 0 0 0 0 0 0 0 0 0 0 0 0 0 0 0 0 0 0 0 0 0 0 0 0 0 0 0 0 0 0 0 0 0 0 0 0 0 0 0 0 0 0 0 0 0 0 0 0 0 0 0 0 0 0 0 0 0 0 0 0 0 0 0 0 0 0 0 0 0 0 0 0 0 0 0 0 0 0 0 0 0 0 0 0 0 0 0 0 0 0 0 0 0 0 0 0 0 0 0 0 0 0 0 0 0 0 0 0 0 0 0 0 0 0 0 0 0 0 0 0 0 0 0 0 0 0 0 0 0 0 0 0 0 0 0 0 0 0 0 0 0 0 0 0 0 0 0 0 0 0 0 0 0 0 0 0 0 0 0 0 0 0 0 0 0 0 0 0 0 0 0 0 0 0 0 0 0 0 0 0 0 0 0 0 0 0 0 0 0 0 0 0 0 0 0 0 0 0 0 0 0 0 0 0 0 0 0 0 0 0 0 0 0 0 0 0 0 0 0 0 0 0 0 0 0 0 0 0 0 0 0 0 0 0 0 0 0 0 0 0 0 0 0 0 0 0 0 0 0 0 0 0 0 0 0 0 0 0 0 0 0 0 0 0 0 0 0 0 0 0 0 0 0 0 0 0 0 0 0 0 0 0 0 0 0 0 0 0 0 0 0 0 0 0 0 0 0 0 0 0 0 0 0 0 0 0 0 0 0 0 0 0 0 0 0 0 0 0 0 0 0 0 0 0 0 0 0 0 0 0 0 0 0 0 0 0 0 0 0 0 0 0 0 0 0 0 0 0 0 0 0 0 0 0 0 0 0 0 0 0 0 0 0 0 0 0 0 0 0 0 0 0 0 0 0 0 0 0 0 0 0 0 0 0 0 0 0 0 0 0 0 0 0 0 0 0 0 0 0 0 0 0 0 0 0 0 0 0 0 0 0 0 0 0 0 0 0 0 0 0 0 0 0 0 0 0 0 0 0 0 0 0 0 0 0 0 0 0 0 0 0 0 0 0 0 0 0 0 0 0 0 0 0 0 0 0 0 0 0 0 0 0 0 0 0 0 0 0 0 0 0 0 0 0 0 0 0 0 0 0 0 0 0 0 0 0 0 0 0 0 0 0 0 0 0 0 0 0 0 0 0 0 0 0 0 0 0 0 0 0 0 0 0 0 0 0 0 0 0 0 0 0 0 0 0 0 0 0 0 0 0 0 0 0 0 0 0 0 0 0 0 0 0 0 0 0 0 0 0 0 0 0 0 0 0 0 0 0 0 0 0 0 0 0 0 0 0 0 0 0 0 0 0 0 0 0 0 0 0 0 0 0 0 0 0 0 0 0 0 0 0 0 0 0 0 0 0 0 0 0 0 0 0 0 0 0 0 0 0 0 0 0 0 0 0 0 0 0 0 0 0 0 0 0 0 0 0 0 0 0 0 0 0 0 0 0 0 0 0 0 0 0 0 0 0 0 0 0 0 0 0 0 0 0 0 0 0 0 0 0 0 0 0 0 0 0 0 0 0 0 0 0 0 0 0 0 0 0 0 0 0 0 0 0 0 0 0 0 0 0 0 0 0 0 0 0 0 0 0 0 0 0 0 0 0 0 0 0 0 0 0 0 0 0 0 0 0 0 0 0 0 0 0 0 0 0 0 0 0 0 0 0 0 0 0 0 0 0 0 0 0 0 0 0 0 0 0 0 0 0 0 0 0 0 0 0 0 0 0 0 0 0 0 0 0 0 0 0 0 0 0 0 0 0 0 0 0 0 0 0 0 0 0 0 0 0 0 0 0 0 0 0 0 0 0 0 0 0 0 0 0 0 0 0 0 0 0 0 0 0 0 0 0 0 0 0 0 0 0 0 0 0 0 0 0 0 0 0 0 0 0 0 0 0 0 0 0 0 0 0 0 0 0 0 0 0 0 0 0 0 0 0 0 0 0 0 0 0 0 0 0 0 0 0 0 0 0 0 0 0 0 0 0 0 0 0 0 0 0 0 0 0 0 0 0 0 0 0 0 0 0 0 0 0 0 0 0 0 0 0 0 0 0 0 0 0 0 0 0 0 0 0 0 0 0 0 0 0 0 0 0 0 0 0 0 0 0 0 0 0 0 0 0 0 0 0 0 0 0 0 0 0 0 0 0 0 0 0 0 0 0 0 0 0 0 0 0 0 0 0 0 0 0 0 0 0 0 0 0 0 0 0 0 0 0 0 0 0 0 0 0 0 0 0 0 0 0 0 0 0 0 0 0 0 0 0 0 0 0 0 0 0 0 0 0 0 0 0 0 0 0 0 0 0 0 0 0 0 0 0 0 0 0 0 0 0 0 0 0 0 0 0 0 0 0 0 0 0 0 0 0 0 0 0 0 0 0 0 0 0 0 0 0 0 0 0 0 0 0 0 0 0 0 0 0 0 0 0 0 0 0 0 0 0 0 0 0 0 0 0 0 0 0 0 0 0 0 0 0 0 0 0 0 0 0 0 0 0 0 0 0 0 0 0 0 0 0 0 0 0 0 0 0 0 0 0 0 0 0 0 0 0 0 0 0 0 0 0 0 0 0 0 0 0 0 0 0 0 0 0 0 0 0 0 0 0 0 0 0 0 0 0 0 0 0 0 0 0 0 0 0 0 0 0 0 0 0 0 0 0 0 0 0 0 0 0 0 0 0 0 0 0 0 0 0 0 0 0 0 0 0 0 0 0 0 0 0 0 0 0 0 0 0 0 0 0 0 0 0 0 0 0 0 0 0 0 0 0 0 0 0 0 0 0 0 0 0 0 0 0 0 0 0 0 0 0 0 0 0 0 0 0 0 0 0 0 0 0 0 0 0 0 0 0 0 0 0 0 0 0 0 0 0 0 0 0 0 0 0 0 0 0 0 0 0 0 0 0 0 0 0 0 0 0 0 0 0 0 0 0 0 0 0 0 0 0 0 0 0 0 0 0 0 0 0 0 0 0 0 0 0 0 0 0 0 0 0 0 0 0 0 0 0 0 0 0 0 0 0 0 0 0 0 0 0 0 0 0 0 0 0 0 0 0 0 0 0 0 0 0 0 0 0 0 0 0 0 0 0 0 0 0 0 0 0 0 0 0 0 0 0 0 0 0 0 0 0 0 0 0 0 0 0 0 0 0 0 0 0 0 0 0 0 0 0 0 0 0 0 0 0 0 0 0 0 0 0 0 0 0 0 0 0 0 0 0 0 0 0 0 0 0 0 0 0 0 0 0 0 0 0 0 0 0 0 0 0 0 0 0 0 0 0 0 0 0 0 0 0 0 0 0 0 0 0 0 0 0 0 0 0 0 0 0 0 0 0 0 0 0 0 0 0 0 0 0 0 0 0 0 0 0 0 0 0 0 0 0 0 0 0 0 0 0 0 0 0 0 0 0 0 0 0 0 0 0 0 0 0 0 0 0 0 0 0 0 0 0 0 0 0 0 0 0 0 0 0 0 0 0 0 0 0 0 0 0 0 0 0 0 0 0 0 0 0 0 0 0 0 0 0 0 0 0 0 0 0 0 0 0 0 0 0 0 0 0 0 0 0 0 0 0 0 0 0 0 0 0 0 0 0 0 0 0 0 0 0 0 0 0 0 0 0 0 0 0 0 0 0 0 0 0 0 0 0 0 0 0 0 0 0 0 0 0 0 0 0 0 0 0 0 0 0 0 0 0 0 0 0 0 0 0 0 0 0 0 0 0 0 0 0 0 0 0 0 0 0 0 0 0 0 0 0 0 0 0 0 0 0 0 0 0 0 0 0 0 0 0 0 0 0 0 0 0 0 0 0 0 0 0 0 0 0 0 0 0 0 0 0 0 0 0 0 0 0 0 0 0 0 0 0 0 0 0 0 0 0 0 0 0 0 0 0 0 0 0 0 0 0 0 0 0 0 0 0 0 0 0 0 0 0 0 0 0 0 0 0 0 0 0 0 0 0 0 0 0 0 0 0 0 0 0 0 0 0 0 0 0 0 0 0 0 0 0 0 0 0 0 0 0 0 0 0 0 0 0 0 0 0 0 0 0 0 0 0 0 0 0 0 0 0 0 0 0 0 0 0 0 0 0 0 0 0 0 0 0 0 0 0 0 0 0 0 0 0 0 0 0 0 0 0 0 0 0 0 0 0 0 0 0 0 0 0 0 0 0 0 0 0 0 0 0 0 0 0 0 0 0 0 0 0 0 0 0 0 0 0 0 0 0 0 0 0 0 0 0 0 0 0 0 0 0 0 0 0 0 0 0 0 0 0 0 0 0 0 0 0 0 0 0 0 0 0 0 0 0 0 0 0 0 0 0 0 0 0 0 0 0 0 0 0 0 0 0 0 0 0 0 0 0 0 0 0 0 0 0 0 0 0 0 0 0 0 0 0 0 0 0 0 0 0 0 0 0 0 0 0 0 0 0 0 0 0 0 0 0 0 0 0 0 0 0 0 0 0 0 0 0 0 0 0 0 0 0 0 0 0 0 0 0 0 0 0 0 0 0 0 0 0 0 0 0 0 0 0 0 0 0 0 0 0 0 0 0 0 0 0 0 0 0 0 0 0 0 0 0 0 0 0 0 0 0 0 0 0 0 0 0 0 0 0 0 0 0 0 0 0 0 0 0 0 0 0 0 0 0 0 0 0 0 0 0 0 0 0 0 0 0 0 0 0 0 0 0 0 0 0 0 0 0 0 0 0 0 0 0 0 0 0 0 0 0 0 0 0 0 0 0 0 0 0 0 0 0 0 0 0 0 0 0 0 0 0 0 0 0 0 0 0 0 0 0 0 0 0 0 0 0 0 0 0 0 0 0 0 0 0 0 0 0 0 0 0 0 0 0 0 0 0 0 0 0 0 0 0 0 0 0 0 0 0 0 0 0 0 0 0 0 0 0 0 0 0 0 0 0 0 0 0 0 0 0 0 0 0 0 0 0 0 0 0 0 0 0 0 0 0 0 0 0 0 0 0 0 0 0 0 0 0 0 0 0 0 0 0 0 0 0 0 0 0 0 0 0 0 0 0 0 0 0 0 0 0 0 0 0 0 0 0 0 0 0 0 0 0 0 0 0 0 0 0 0 0 0 0 0 0 0 0 0 0 0 0 0 0 0 0 0 0 0 0 0 0 0 0 0 0 0 0 0 0 0 0 0 0 0 0 0 0 0 0 0 0 0 0 0 0 0 0 0 0 0 0 0 0 0 0 0 0 0 0 0 0 0 0 0 0 0 0 0 0 0 0 0 0 0 0 0 0 0 0 0 0 0 0 0 0 0 0 0 0 0 0 0 0 0 0 0 0 0 0 0 0 0 0 0 0 0 0 0 0 0 0 0 0 0 0 0 0 0 0 0 0 0 0 0 0 0 0 0 0 0 0 0 0 0 0 0 0 0 0 0 0 0 0 0 0 0 0 0 0 0 0 0 0 0 0 0 0 0 0 0 0 0 0 0 0 0 0 0 0 0 0 0 0 0 0 0 0 0 0 0 0 0 0 0 0 0 0 0 0 0 0 0 0 0 0 0 0 0 0 0 0 0 0 0 0 0 0 0 0 0 0 0 0 0 0 0 0 0 0 0 0 0 0 0 0 0 0 0 0 0 0 0 0 0 0 0 0 0 0 0 0 0 0 0 0 0 0 0 0 0 0 0 0 0 0 0 0 0 0 0 0 0 0 0 0 0 0 0 0 0 0 0 0 0 0 0 0 0 0 0 0 0 0 0 0 0 0 0 0 0 0 0 0 0 0 0 0 0 0 0 0 0 0 0 0 0 0 0 0 0 0 0 0 0 0 0 0 0 0 0 0 0 0 0 0 0 0 0 0 0 0 0 0 0 0 0 0 0 0 0 0 0 0 0 0 0 0 0 0 0 0 0 0 0 0 0 0 0 0 0 0 0 0 0 0 0 0 0 0 0 0 0 0 0 0 0 0 0 0 0 0 0 0 0 0 0 0 0 0 0 0 0 0 0 0 0 0 0 0 0 0 0 0 0 0 0 0 0 0 0 0 0 0 0 0 0 0 0 0 0 0 0 0 0 0 0 0 0 0 0 0 0 0 0 0 0 0 0 0 0 0 0 0 0 0 0 0 0 0 0 0 0 0 0 0 0 0 0 0 0 0 0 0 0 0 0 0 0 0 0 0 0 0 0 0 0 0 0 0 0 0 0 0 0 0 0 0 0 0 0 0 0 0 0 0 0 0 0 0 0 0 0 0 0 0 0 0 0 0 0 0 0 0 0 0 0 0 0 0 0 0 0 0 0 0 0 0 0 0 0 0 0 0 0 0 0 0 0 0 0 0 0 0 0 0 0 0 0 0 0 0 0 0 0 0 0 0 0 0 0 0 0 0 0 0 0 0 0 0 0 0 0 0 0 0 0 0 0 0 0 0 0 0 0 0 0 0 0 0 0 0 0 0 0 0 0 0 0 0 0 0 0 0 0 0 0 0 0 0 0 0 0 0 0 0 0 0 0 0 0 0 0 0 0 0 0 0 0 0 0 0 0 0 0 0 0 0 0 0 0 0 0 0 0 0 0 0 0 0 0 0 0 0 0 0 0 0 0 0 0 0 0 0 0 0 0 0 0 0 0 0 0 0 0 0 0 0 0 0 0 0 0 0 0 0 0 0 0 0 0 0 0 0 0 0 0 0 0 0 0 0 0 0 0 0 0 0 0 0 0 0 0 0 0 0 0 0 0 0 0 0 0 0 0 0 0 0 0 0 0 0 0 0 0 0 0 0 0 0 0 0 0 0 0 0 0 0 0 0 0 0 0 0 0 0 0 0 0 0 0 0 0 0 0 0 0 0 0 0 0 0 0 0 0 0 0 0 0 0 0 0 0 0 0 0 0 0 0 0 0 0 0 0 0 0 0 0 0 0 0 0 0 0 0 0 0 0 0 0 0 0 0 0 0 0 0 0 0 0 0 0 0 0 0 0 0 0 0 0 0 0 0 0 0 0 0 0 0 0 0 0 0 0 0 0 0 0 0 0 0 0 0 0 0 0 0 0 0 0 0 0 0 0 0 0 0 0 0 0 0 0 0 0 0 0 0 0 0 0 0 0 0 0 0 0 0 0 0 0 0 0 0 0 0 0 0 0 0 0 0 0 0 0 0 0 0 0 0 0 0 0 0 0 0 0 0 0 0 0 0 0 0 0 0 0 0 0 0 0 0 0 0 0 0 0 0 0 0 0 0 0 0 0 0 0 0 0 0 0 0 0 0 0 0 0 0 0 0 0 0 0 0 0 0 0 0 0 0 0 0 0 0 0 0 0 0 0 0 0 0 0 0 0 0 0 0 0 0 0 0 0 0 0 0 0 0 0 0 0 0 0 0 0 0 0 0 0 0 0 0 0 0 0 0 0 0 0 0 0 0 0 0 0 0 0 0 0 0 0 0 0 0 0 0 0 0 0 0 0 0 0 0 0 0 0 0 0 0 0 0 0 0 0 0 0 0 0 0 0 0 0 0 0 0 0 0 0 0 0 0 0 0 0 0 0 0 0 0 0 0 0 0 0 0 0 0 0 0 0 0 0 0 0 0 0 0 0 0 0 0 0 0 0 0 0 0 0 0 0 0 0 0 0 0 0 0 0 0 0 0 0 0 0 0 0 0 0 0 0 0 0 0 0 0 0 0 0 0 0 0 0 0 0 0 0 0 0 0 0 0 0 0 0 0 0 0 0 0 0 0 0 0 0 0 0 0 0 0 0 0 0 0 0 0 0 0 0 0 0 0 0 0 0 0 0 0 0 0 0 0 0 0 0 0 0 0 0 0 0 0 0 0 0 0 0 0 0 0 0 0 0 0 0 0 0 0 0 0 0 0 0 0 0 0 0 0 0 0 0 0 0 0 0 0 0 0 0 0 0 0 0 0 0 0 0 0 0 0 0 0 0 0 0 0 0 0 0 0 0 0 0 0 0 0 0 0 0 0 0 0 0 0 0 0 0 0 0 0 0 0 0 0 0 0 0 0 0 0 0 0 0 0 0 0 0 0 0 0 0 0 0 0 0 0 0 0 0 0 0 0 0 0 0 0 0 0 0 0 0 0 0 0 0 0 0 0 0 0 0 0 0 0 0 0 0 0 0 0 0 0 0 0 0 0 0 0 0 0 0 0 0 0 0 0 0 0 0 0 0 0 0 0 0 0 0 0 0 0 0 0 0 0 0 0 0 0 0 0 0 0 0 0 0 0 0 0 0 0 0 0 0 0 0 0 0 0 0 0 0 0 0 0 0 0 0 0 0 0 0 0 0 0 0 0 0 0 0 0 0 0 0 0 0 0 0 0 0 0 0 0 0 0 0 0 0 0 0 0 0 0 0 0 0 0 0 0 0 0 0 0 0 0 0 0 0 0 0 0 0 0 0 0 0 0 0 0 0 0 0 0 0 0 0 0 0 0 0 0 0 0 0 0 0 0 0 0 0 0 0 0 0 0 0 0 0 0 0 0 0 0 0 0 0 0 0 0 0 0 0 0 0 0 0 0 0 0 0 0 0 0 0 0 0 0 0 0 0 0 0 0 0 0 0 0 0 0 0 0 0 0 0 0 0 0 0 0 0 0 0 0 0 0 0 0 0 0 0 0 0 0 0 0 0 0 0 0 0 0 0 0 0 0 0 0 0 0 0 0 0 0 0 0 0 0 0 0 0 0 0 0 0 0 0 0 0 0 0 0 0 0 0 0 0 0 0 0 0 0 0 0 0 0 0 0 0 0 0 0 0 0 0 0 0 0 0 0 0 0 0 0 0 0 0 0 0 0 0 0 0 0 0 0 0 0 0 0 0 0 0 0 0 0 0 0 0 0 0 0 0 0 0 0 0 0 0 0 0 0 0 0 0 0 0 0 0 0 0 0 0 0 0 0 0 0 0 0 0 0 0 0 0 0 0 0 0 0 0 0 0 0 0 0 0 0 0 0 0 0 0 0 0 0 0 0 0 0 0 0 0 0 0 0 0 0 0 0 0 0 0 0 0 0 0 0 0 0 0 0 0 0 0 0 0 0 0 0 0 0 0 0 0 0 0 0 0 0 0 0 0 0 0 0 0 0 0 0 0 0 0 0 0 0 0 0 0 0 0 0 0 0 0 0 0 0 0 0 0 0 0 0 0 0 0 0 0 0 0 0 0 0 0 0 0 0 0 0 0 0 0 0 0 0 0 0 0 0 0 0 0 0 0 0 0 0 0 0 0 0 0 0 0 0 0 0 0 0 0 0 0 0 0 0 0 0 0 0 0 0 0 0 0 0 0 0 0 0 0 0 0 0 0 0 0 0 0 0 0 0 0 0 0 0 0 0 0 0 0 0 0 0 0 0 0 0 0 0 0 0 0 0 0 0 0 0 0 0 0 0 0 0 0 0 0 0 0 0 0 0 0 0 0 0 0 0 0 0 0 0 0 0 0 0 0 0 0 0 0 0 0 0 0 0 0 0 0 0 0 0 0 0 0 0 0 0 0 0 0 0 0 0 0 0 0 0 0 0 0 0 0 0 0 0 0 0 0 0 0 0 0 0 0 0 0 0 0 0 0 0 0 0 0 0 0 0 0 0 0 0 0 0 0 0 0 0 0 0 0 0 0 0 0 0 0 0 0 0 0 0 0 0 0 0 0 0 0 0 0 0 0 0 0 0 0 0 0 0 0 0 0 0 0 0 0 0 0 0 0 0 0 0 0 0 0 0 0 0 0 0 0 0 0 0 0 0 0 0 0 0 0 0 0 0 0 0 0 0 0 0 0 0 0 0 0 0 0 0 0 0 0 0 0 0 0 0 0 0 0 0 0 0 0 0 0 0 0 0 0 0 0 0 0 0 0 0 0 0 0 0 0 0 0 0 0 0 0 0 0 0 0 0 0 0 0 0 0 0 0 0 0 0 0 0 0 0 0 0 0 0 0 0 0 0 0 0 0 0 0 0 0 0 0 0 0 0 0 0 0 0 0 0 0 0 0 0 0 0 0 0 0 0 0 0 0 0 0 0 0 0 0 0 0 0 0 0 0 0 0 0 0 0 0 0 0 0 0 0 0 0 0 0 0 0 0 0 0 0 0 0 0 0 0 0 0 0 0 0 0 0 0 0 0 0 0 0 0 0 0 0 0 0 0 0 0 0 0 0 0 0 0 0 0 0 0 0 0 0 0 0 0 0 0 0 0 0 0 0 0 0 0 0 0 0 0 0 0 0 0 0 0 0 0 0 0 0 0 0 0 0 0 0 0 0 0 0 0 0 0 0 0 0 0 0 0 0 0 0 0 0 0 0 0 0 0 0 0 0 0 0 0 0 0 0 0 0 0 0 0 0 0 0 0 0 0 0 0 0 0 0 0 0 0 0 0 0 0 0 0 0 0 0 0 0 0 0 0 0 0 0 0 0 0 0 0 0 0 0 0 0 0 0 0 0 0 0 0 0 0 0 0 0 0 0 0 0 0 0 0 0 0 0 0 0 0 0 0 0 0 0 0 0 0 0 0 0 0 0 0 0 0 0 0 0 0 0 0 0 0 0 0 0 0 0 0 0 0 0 0 0 0 0 0 0 0 0 0 0 0 0 0 0 0 0 0 0 0 0 0 0 0 0 0 0 0 0 0 0 0 0 0 0 0 0 0 0 0 0 0 0 0 0 0 0 0 0 0 0 0 0 0 0 0 0 0 0 0 0 0 0 0 0 0 0 0 0 0 0 0 0 0 0 0 0 0 0 0 0 0 0 0 0 0 0 0 0 0 0 0 0 0 0 0 0 0 0 0 0 0 0 0 0 0 0 0 0 0 0 0 0 0 0 0 0 0 0 0 0 0 0 0 0 0 0 0 0 0 0 0 0 0 0 0 0 0 0 0 0 0 0 0 0 0 0 0 0 0 0 0 0 0 0 0 0 0 0 0 0 0 0 0 0 0 0 0 0 0 0 0 0 0 0 0 0 0 0 0 0 0 0 0 0 0 0 0 0 0 0 0 0 0 0 0 0 0 0 0 0 0 0 0 0 0 0 0 0 0 0 0 0 0 0 0 0 0 0 0 0 0 0 0 0 0 0 0 0 0 0 0 0 0 0 0 0 0 0 0 0 0 0 0 0 0 0 0 0 0 0 0 0 0 0 0 0 0 0 0 0 0 0 0 0 0 0 0 0 0 0 0 0 0 0 0 0 0 0 0 0 0 0 0 0 0 0 0 0 0 0 0 0 0 0 0 0 0 0 0 0 0 0 0 0 0 0 0 0 0 0 0 0 0 0 0 0 0 0 0 0 0 0 0 0 0 0 0 0 0 0 0 0 0 0 0 0 0 0 0 0 0 0 0 0 0 0 0 0 0 0 0 0 0 0 0 0 0 0 0 0 0 0 0 0 0 0 0 0 0 0 0 0 0 0 0 0 0 0 0 0 0 0 0 0 0 0 0 0 0 0 0 0 0 0 0 0 0 0 0 0 0 0 0 0 0 0 0 0 0 0 0 0 0 0 0 0 0 0 0 0 0 0 0 0 0 0 0 0 0 0 0 0 0 0 0 0 0 0 0 0 0 0 0 0 0 0 0 0 0 0 0 0 0 0 0 0 0 0 0 0 0 0 0 0 0 0 0 0 0 0 0 0 0 0 0 0 0 0 0 0 0 0 0 0 0 0 0 0 0 0 0 0 0 0 0 0 0 0 0 0 0 0 0 0 0 0 0 0 0 0 0 0 0 0 0 0 0 0 0 0 0 0 0 0 0 0 0 0 0 0 0 0 0 0 0 0 0 0 0 0 0 0 0 0 0 0 0 0 0 0 0 0 0 0 0 0 0 0 0 0 0 0 0 0 0 0 0 0 0 0 0 0 0 0 0 0 0 0 0 0 0 0 0 0 0 0 0 0 0 0 0 0 0 0 0 0 0 0 0 0 0 0 0 0 0 0 0 0 0 0 0 0 0 0 0 0 0 0 0 0 0 0 0 0 0 0 0 0 0 0 0 0 0 0 0 0 0 0 0 0 0 0 0 0 0 0 0 0 0 0 0 0 0 0 0 0 0 0 0 0 0 0 0 0 0 0 0 0 0 0 0 0 0 0 0 0 0 0 0 0 0 0 0 0 0 0 0 0 0 0 0 0 0 0 0 0 0 0 0 0 0 0 0 0 0 0 0 0 0 0 0 0 0 0 0 0 0 0 0 0 0 0 0 0 0 0 0 0 0 0 0 0 0 0 0 0 0 0 0 0 0 0 0 0 0 0 0 0 0 0 0 0 0 0 0 0 0 0 0 0 0 0 0 0 0 0 0 0 0 0 0 0 0 0 0 0 0 0 0 0 0 0 0 0 0 0 0 0 0 0 0 0 0 0 0 0 0 0 0 0 0 0 0 0 0 0 0 0 0 0 0 0 0 0 0 0 0 0 0 0 0 0 0 0 0 0 0 0 0 0 0 0 0 0 0 0 0 0 0 0 0 0 0 0 0 0 0 0 0 0 0 0 0 0 0 0 0 0 0 0 0 0 0 0 0 0 0 0 0 0 0 0 0 0 0 0 0 0 0 0 0 0 0 0 0 0 0 0 0 0 0 0 0 0 0 0 0 0 0 0 0 0 0 0 0 0 0 0 0 0 0 0 0 0 0 0 0 0 0 0 0 0 0 0 0 0 0 0 0 0 0 0 0 0 0 0 0 0 0 0 0 0 0 0 0 0 0 0 0 0 0 0 0 0 0 0 0 0 0 0 0 0 0 0 0 0 0 0 0 0 0 0 0 0 0 0 0 0 0 0 0 0 0 0 0 0 0 0 0 0 0 0 0 0 0 0 0 0 0 0 0 0 0 0 0 0 0 0 0 0 0 0 0 0 0 0 0 0 0 0 0 0 0 0 0 0 0 0 0 0 0 0 0 0 0 0 0 0 0 0 0 0 0 0 0 0 0 0 0 0 0 0 0 0 0 0 0 0 0 0 0 0 0 0 0 0 0 0 0 0 0 0 0 0 0 0 0 0 0 0 0 0 0 0 0 0 0 0 0 0 0 0 0 0 0 0 0 0 0 0 0 0 0 0 0 0 0 0 0 0 0 0 0 0 0 0 0 0 0 0 0 0 0 0 0 0 0 0 0 0 0 0 0 0 0 0 0 0 0 0 0 0 0 0 0 0 0 0 0 0 0 0 0 0 0 0 0 0 0 0 0 0 0 0 0 0 0 0 0 0 0 0 0 0 0 0 0 0 0 0 0 0 0 0 0 0 0 0 0 0 0 0 0 0 0 0 0 0 0 0 0 0 0 0 0 0 0 0 0 0 0 0 0 0 0 0 0 0 0 0 0 0 0 0 0 0 0 0 0 0 0 0 0 0 0 0 0 0 0 0 0 0 0 0 0 0 0 0 0 0 0 0 0 0 0 0 0 0 0 0 0 0 0 0 0 0 0 0 0 0 0 0 0 0 0 0 0 0 0 0 0 0 0 0 0 0 0 0 0 0 0 0 0 0 0 0 0 0 0 0 0 0 0 0 0 0 0 0 0 0 0 0 0 0 0 0 0 0 0 0 0 0 0 0 0 0 0 0 0 0 0 0 0 0 0 0 0 0 0 0 0 0 0 0 0 0 0 0 0 0 0 0 0 0 0 0 0 0 0 0 0 0 0 0 0 0 0 0 0 0 0 0 0 0 0 0 0 0 0 0 0 0 0 0 0 0 0 0 0 0 0 0 0 0 0 0 0 0 0 0 0 0 0 0 0 0 0 0 0 0 0 0 0 0 0 0 0 0 0 0 0 0 0 0 0 0 0 0 0 0 0 0 0 0 0 0 0 0 0 0 0 0 0 0 0 0 0 0 0 0 0 0 0 0 0 0 0 0 0 0 0 0 0 0 0 0 0 0 0 0 0 0 0 0 0 0 0 0 0 0 0 0 0 0 0 0 0 0 0 0 0 0 0 0 0 0 0 0 0 0 0 0 0 0 0 0 0 0 0 0 0 0 0 0 0 0 0 0 0 0 0 0 0 0 0 0 0 0 0 0 0 0 0 0 0 0 0 0 0 0 0 0 0 0 0 0 0 0 0 0 0 0 0 0 0 0 0 0 0 0 0 0 0 0 0 0 0 0 0 0 0 0 0 0 0 0 0 0 0 0 0 0 0 0 0 0 0 0 0 0 0 0 0 0 0 0 0 0 0 0 0 0 0 0 0 0 0 0 0 0 0 0 0 0 0 0 0 0 0 0 0 0 0 0 0 0 0 0 0 0 0 0 0 0 0 0 0 0 0 0 0 0 0 0 0 0 0 0 0 0 0 0 0 0 0 0 0 0 0 0 0 0 0 0 0 0 0 0 0 0 0 0 0 0 0 0 0 0 0 0 0 0 0 0 0 0 0 0 0 0 0 0 0 0 0 0 0 0 0 0 0 0 0 0 0 0 0 0 0 0 0 0 0 0 0 0 0 0 0 0 0 0 0 0 0 0 0 0 0 0 0 0 0 0 0 0 0 0 0 0 0 0 0 0 0 0 0 0 0 0 0 0 0 0 0 0 0 0 0 0 0 0 0 0 0 0 0 0 0 0 0 0 0 0 0 0 0 0 0 0 0 0 0 0 0 0 0 0 0 0 0 0 0 0 0 0 0 0 0 0 0 0 0 0 0 0 0 0 0 0 0 0 0 0 0 0 0 0 0 0 0 0 0 0 0 0 0 0 0 0 0 0 0 0 0 0 0 0 0 0 0 0 0 0 0 0 0 0 0 0 0 0 0 0 0 0 0 0 0 0 0 0 0 0 0 0 0 0 0 0 0 0 0 0 0 0 0 0 0 0 0 0 0 0 0 0 0 0 0 0 0 0 0 0 0 0 0 0 0 0 0 0 0 0 0 0 0 0 0 0 0 0 0 0 0 0 0 0 0 0 0 0 0 0 0 0 0 0 0 0 0 0 0 0 0 0 0 0 0 0 0 0 0 0 0 0 0 0 0 0 0 0 0 0 0 0 0 0 0 0 0 0 0 0 0 0 0 0 0 0 0 0 0 0 0 0 0 0 0 0 0 0 0 0 0 0 0 0 0 0 0 0 0 0 0 0 0 0 0 0 0 0 0 0 0 0 0 0 0 0 0 0 0 0 0 0 0 0 0 0 0 0 0 0 0 0 0 0 0 0 0 0 0 0 0 0 0 0 0 0 0 0 0 0 0 0 0 0 0 0 0 0 0 0 0 0 0 0 0 0 0 0 0 0 0 0 0 0 0 0 0 0 0 0 0 0 0 0 0 0 0 0 0 0 0 0 0 0 0 0 0 0 0 0 0 0 0 0 0 0 0 0 0 0 0 0 0 0 0 0 0 0 0 0 0 0 0 0 0 0 0 0 0 0 0 0 0 0 0 0 0 0 0 0 0 0 0 0 0 0 0 0 0 0 0 0 0 0 0 0 0 0 0 0 0 0 0 0 0 0 0 0 0 0 0 0 0 0 0 0 0 0 0 0 0 0 0 0 0 0 0 0 0 0 0 0 0 0 0 0 0 0 0 0 0 0 0 0 0 0 0 0 0 0 0 0 0 0 0 0 0 0 0 0 0 0 0 0 0 0 0 0 0 0 0 0 0 0 0 0 0 0 0 0 0 0 0 0 0 0 0 0 0 0 0 0 0 0 0 0 0 0 0 0 0 0 0 0 0 0 0 0 0 0 0 0 0 0 0 0 0 0 0 0 0 0 0 0 0 0 0 0 0 0 0 0 0 0 0 0 0 0 0 0 0 0 0 0 0 0 0 0 0 0 0 0 0 0 0 0 0 0 0 0 0 0 0 0 0 0 0 0 0 0 0 0 0 0 0 0 0 0 0 0 0 0 0 0 0 0 0 0 0 0 0 0 0 0 0 0 0 0 0 0 0 0 0 0 0 0 0 0 0 0 0 0 0 0 0 0 0 0 0 0 0 0 0 0 0 0 0 0 0 0 0 0 0 0 0 0 0 0 0 0 0 0 0 0 0 0 0 0 0 0 0 0 0 0 0 0 0 0 0 0 0 0 0 0 0 0 0 0 0 0 0 0 0 0 0 0 0 0 0 0 0 0 0 0 0 0 0 0 0 0 0 0 0 0 0 0 0 0 0 0 0 0 0 0 0 0 0 0 0 0 0 0 0 0 0 0 0 0 0 0 0 0 0 0 0 0 0 0 0 0 0 0 0 0 0 0 0 0 0 0 0 0 0 0 0 0 0 0 0 0 0 0 0 0 0 0 0 0 0 0 0 0 0 0 0 0 0 0 0 0 0 0 0 0 0 0 0 0 0 0 0 0 0 0 0 0 0 0 0 0 0 0 0 0 0 0 0 0 0 0 0 0 0 0 0 0 0 0 0 0 0 0 0 0 0 0 0 0 0 0 0 0 0 0 0 0 0 0 0 0 0 0 0 0 0 0 0 0 0 0 0 0 0 0 0 0 0 0 0 0 0 0 0 0 0 0 0 0 0 0 0 0 0 0 0 0 0 0 0 0 0 0 0 0 0 0 0 0 0 0 0 0 0 0 0 0 0 0 0 0 0 0 0 0 0 0 0 0 0 0 0 0 0 0 0 0 0 0 0 0 0 0 0 0 0 0 0 0 0 0 0 0 0 0 0 0 0 0 0 0 0 0 0 0 0 0 0 0 0 0 0 0 0 0 0 0 0 0 0 0 0 0 0 0 0 0 0 0 0 0 0 0 0 0 0 0 0 0 0 0 0 0 0 0 0 0 0 0 0 0 0 0 0 0 0 0 0 0 0 0 0 0 0 0 0 0 0 0 0 0 0 0 0 0 0 0 0 0 0 0 0 0 0 0 0 0 0 0 0 0 0 0 0 0 0 0 0 0 0 0 0 0 0 0 0 0 0 0 0 0 0 0 0 0 0 0 0 0 0 0 0 0 0 0 0 0 0 0 0 0 0 0 0 0 0 0 0 0 0 0 0 0 0 0 0 0 0 0 0 0 0 0 0 0 0 0 0 0 0 0 0 0 0 0 0 0 0 0 0 0 0 0 0 0 0 0 0 0 0 0 0 0 0 0 0 0 0 0 0 0 0 0 0 0 0 0 0 0 0 0 0 0 0 0 0 0 0 0 0 0 0 0 0 0 0 0 0 0 0 0 0 0 0 0 0 0 0 0 0 0 0 0 0 0 0 0 0 0 0 0 0 0 0 0 0 0 0 0 0 0 0 0 0 0 0 0 0 0 0 0 0 0 0 0 0 0 0 0 0 0 0 0 0 0 0 0 0 0 0 0 0 0 0 0 0 0 0 0 0 0 0 0 0 0 0 0 0 0 0 0 0 0 0 0 0 0 0 0 0 0 0 0 0 0 0 0 0 0 0 0 0 0 0 0 0 0 0 0 0 0 0 0 0 0 0 0 0 0 0 0 0 0 0 0 0 0 0 0 0 0 0 0 0 0 0 0 0 0 0 0 0 0 0 0 0 0 0 0 0 0 0 0 0 0 0 0 0 0 0 0 0 0 0 0 0 0 0 0 0 0 0 0 0 0 0 0 0 0 0 0 0 0 0 0 0 0 0 0 0 0 0 0 0 0 0 0 0 0 0 0 0 0 0 0 0 0 0 0 0 0 0 0 0 0 0 0 0 0 0 0 0 0 0 0 0 0 0 0 0 0 0 0 0 0 0 0 0 0 0 0 0 0 0 0 0 0 0 0 0 0 0 0 0 0 0 0 0 0 0 0 0 0 0 0 0 0 0 0 0 0 0 0 0 0 0 0 0 0 0 0 0 0 0 0 0 0 0 0 0 0 0 0 0 0 0 0 0 0 0 0 0 0 0 0 0 0 0 0 0 0 0 0 0 0 0 0 0 0 0 0 0 0 0 0 0 0 0 0 0 0 0 0 0 0 0 0 0 0 0 0 0 0 0 0 0 0 0 0 0 0 0 0 0 0 0 0 0 0 0 0 0 0 0 0 0 0 0 0 0 0 0 0 0 0 0 0 0 0 0 0 0 0 0 0 0 0 0 0 0 0 0 0 0 0 0 0 0 0 0 0 0 0 0 0 0 0 0 0 0 0 0 0 0 0 0 0 0 0 0 0 0 0 0 0 0 0 0 0 0 0 0 0 0 0 0 0 0 0 0 0 0 0 0 0 0 0 0 0 0 0 0 0 0 0 0 0 0 0 0 0 0 0 0 0 0 0 0 0 0 0 0 0 0 0 0 0 0 0 0 0 0 0 0 0 0 0 0 0 0 0 0 0 0 0 0 0 0 0 0 0 0 0 0 0 0 0 0 0 0 0 0 0 0 0 0 0 0 0 0 0 0 0 0 0 0 0 0 0 0 0 0 0 0 0 0 0 0 0 0 0 0 0 0 0 0 0 0 0 0 0 0 0 0 0 0 0 0 0 0 0 0 0 0 0 0 0 0 0 0 0 0 0 0 0 0 0 0 0 0 0 0 0 0 0 0 0 0 0 0 0 0 0 0 0 0 0 0 0 0 0 0 0 0 0 0 0 0 0 0 0 0 0 0 0 0 0 0 0 0 0 0 0 0 0 0 0 0 0 0 0 0 0 0 0 0 0 0 0 0 0 0 0 0 0 0 0 0 0 0 0 0 0 0 0 0 0 0 0 0 0 0 0 0 0 0 0 0 0 0 0 0 0 0 0 0 0 0 0 0 0 0 0 0 0 0 0 0 0 0 0 0 0 0 0 0 0 0 0 0 0 0 0 0 0 0 0 0 0 0 0 0 0 0 0 0 0 0 0 0 0 0 0 0 0 0 0 0 0 0 0 0 0 0 0 0 0 0 0 0 0 0 0 0 0 0 0 0 0 0 0 0 0 0 0 0 0 0 0 0 0 0 0 0 0 0 0 0 0 0 0 0 0 0 0 0 0 0 0 0 0 0 0 0 0 0 0 0 0 0 0 0 0 0 0 0 0 0 0 0 0 0 0 0 0 0 0 0 0 0 0 0 0 0 0 0 0 0 0 0 0 0 0 0 0 0 0 0 0 0 0 0 0 0 0 0 0 0 0 0 0 0 0 0 0 0 0 0 0 0 0 0 0 0 0 0 0 0 0 0 0 0 0 0 0 0 0 0 0 0 0 0 0 0 0 0 0 0 0 0 0 0 0 0 0 0 0 0 0 0 0 0 0 0 0 0 0 0 0 0 0 0 0 0 0 0 0 0 0 0 0 0 0 0 0 0 0 0 0 0 0 0 0 0 0 0 0 0 0 0 0 0 0 0 0 0 0 0 0 0 0 0 0 0 0 0 0 0 0 0 0 0 0 0 0 0 0 0 0 0 0 0 0 0 0 0 0 0 0 0 0 0 0 0 0 0 0 0 0 0 0 0 0 0 0 0 0 0 0 0 0 0 0 0 0 0 0 0 0 0 0 0 0 0 0 0 0 0 0 0 0 0 0 0 0 0 0 0 0 0 0 0 0 0 0 0 0 0 0 0 0 0 0 0 0 0 0 0 0 0 0 0 0 0 0 0 0 0 0 0 0 0 0 0 0 0 0 0 0 0 0 0 0 0 0 0 0 0 0 0 0 0 0 0 0 0 0 0 0 0 0 0 0 0 0 0 0 0 0 0 0 0 0 0 0 0 0 0 0 0 0 0 0 0 0 0 0 0 0 0 0 0 0 0 0 0 0 0 0 0 0 0 0 0 0 0 0 0 0 0 0 0 0 0 0 0 0 0 0 0 0 0 0 0 0 0 0 0 0 0 0 0 0 0 0 0 0 0 0 0 0 0 0 0 0 0 0 0 0 0 0 0 0 0 0 0 0 0 0 0 0 0 0 0 0 0 0 0 0 0 0 0 0 0 0 0 0 0 0 0 0 0 0 0 0 0 0 0 0 0 0 0 0 0 0 0 0 0 0 0 0 0 0 0 0 0 0 0 0 0 0 0 0 0 0 0 0 0 0 0 0 0 0 0 0 0 0 0 0 0 0 0 0 0 0 0 0 0 0 0 0 0 0 0 0 0 0 0 0 0 0 0 0 0 0 0 0 0 0 0 0 0 0 0 0 0 0 0 0 0 0 0 0 0 0 0 0 0 0 0 0 0 0 0 0 0 0 0 0 0 0 0 0 0 0 0 0 0 0 0 0 0 0 0 0 0 0 0 0 0 0 0 0 0 0 0 0 0 0 0 0 0 0 0 0 0 0 0 0 0 0 0 0 0 0 0 0 0 0 0 0 0 0 0 0 0 0 0 0 0 0 0 0 0 0 0 0 0 0 0 0 0 0 0 0 0 0 0 0 0 0 0 0 0 0 0 0 0 0 0 0 0 0 0 0 0 0 0 0 0 0 0 0 0 0 0 0 0 0 0 0 0 0 0 0 0 0 0 0 0 0 0 0 0 0 0 0 0 0 0 0 0 0 0 0 0 0 0 0 0 0 0 0 0 0 0 0 0 0 0 0 0 0 0 0 0 0 0 0 0 0 0 0 0 0 0 0 0 0 0 0 0 0 0 0 0 0 0 0 0 0 0 0 0 0 0 0 0 0 0 0 0 0 0 0 0 0 0 0 0 0 0 0 0 0 0 0 0 0 0 0 0 0 0 0 0 0 0 0 0 0 0 0 0 0 0 0 0 0 0 0 0 0 0 0 0 0 0 0 0 0 0 0 0 0 0 0 0 0 0 0 0 0 0 0 0 0 0 0 0 0 0 0 0 0 0 0 0 0 0 0 0 0 0 0 0 0 0 0 0 0 0 0 0 0 0 0 0 0 0 0 0 0 0 0 0 0 0 0 0 0 0 0 0 0 0 0 0 0 0 0 0 0 0 0 0 0 0 0 0 0 0 0 0 0 0 0 0 0 0 0 0 0 0 0 0 0 0 0 0 0 0 0 0 0 0 0 0 0 0 0 0 0 0 0 0 0 0 0 0 0 0 0 0 0 0 0 0 0 0 0 0 0 0 0 0 0 0 0 0 0 0 0 0 0 0 0 0 0 0 0 0 0 0 0 0 0 0 0 0 0 0 0 0 0 0 0 0 0 0 0 0 0 0 0 0 0 0 0 0 0 0 0 0 0 0 0 0 0 0 0 0 0 0 0 0 0 0 0 0 0 0 0 0 0 0 0 0 0 0 0 0 0 0 0 0 0 0 0 0 0 0 0 0 0 0 0 0 0 0 0 0 0 0 0 0 0 0 0 0 0 0 0 0 0 0 0 0 0 0 0 0 0 0 0 0 0 0 0 0 0 0 0 0 0 0 0 0 0 0 0 0 0 0 0 0 0 0 0 0 0 0 0 0 0 0 0 0 0 0 0 0 0 0 0 0 0 0 0 0 0 0 0 0 0 0 0 0 0 0 0 0 0 0 0 0 0 0 0 0 0 0 0 0 0 0 0 0 0 0 0 0 0 0 0 0 0 0 0 0 0 0 0 0 0 0 0 0 0 0 0 0 0 0 0 0 0 0 0 0 0 0 0 0 0 0 0 0 0 0 0 0 0 0 0 0 0 0 0 0 0 0 0 0 0 0 0 0 0 0 0 0 0 0 0 0 0 0 0 0 0 0 0 0 0 0 0 0 0 0 0 0 0 0 0 0 0 0 0 0 0 0 0 0 0 0 0 0 0 0 0 0 0 0 0 0 0 0 0 0 0 0 0 0 0 0 0 0 0 0 0 0 0 0 0 0 0 0 0 0 0 0 0 0 0 0 0 0 0 0 0 0 0 0 0 0 0 0 0 0 0 0 0 0 0 0 0 0 0 0 0 0 0 0 0 0 0 0 0 0 0 0 0 0 0 0 0 0 0 0 0 0 0 0 0 0 0 0 0 0 0 0 0 0 0 0 0 0 0 0 0 0 0 0 0 0 0 0 0 0 0 0 0 0 0 0 0 0 0 0 0 0 0 0 0 0 0 0 0 0 0 0 0 0 0 0 0 0 0 0 0 0 0 0 0 0 0 0 0 0 0 0 0 0 0 0 0 0 0 0 0 0 0 0 0 0 0 0 0 0 0 0 0 0 0 0 0 0 0 0 0 0 0 0 0 0 0 0 0 0 0 0 0 0 0 0 0 0 0 0 0 0 0 0 0 0 0 0 0 0 0 0 0 0 0 0 0 0 0 0 0 0 0 0 0 0 0 0 0 0 0 0 0 0 0 0 0 0 0 0 0 0 0 0 0 0 0 0 0 0 0 0 0 0 0 0 0 0 0 0 0 0 0 0 0 0 0 0 0 0 0 0 0 0 0 0 0 0 0 0 0 0 0 0 0 0 0 0 0 0 0 0 0 0 0 0 0 0 0 0 0 0 0 0 0 0 0 0 0 0 0 0 0 0 0 0 0 0 0 0 0 0 0 0 0 0 0 0 0 0 0 0 0 0 0 0 0 0 0 0 0 0 0 0 0 0 0 0 0 0 0 0 0 0
</DataArray>
<DataArray Name="STRESS" NumberOfComponents="3" type="Float32" format="ascii" >
 0 0 0 0 0 0 0 0 0 0 0 0 0 0 0 0 0 0 0 0 0 0 0 0 0 0 0 0 0 0 0 0 0 0 0 0 0 0 0 0 0 0 0 0 0 0 0 0 0 0 0 0 0 0 0 0 0 0 0 0 0 0 0 0 0 0 0 0 0 0 0 0 0 0 0 0 0 0 0 0 0 0 0 0 0 0 0 0 0 0 0 0 0 0 0 0 0 0 0 0 0 0 0 0 0 0 0 0 0 0 0 0 0 0 0 0 0 0 0 0 0 0 0 0 0 0 0 0 0 0 0 0 0 0 0 0 0 0 0 0 0 0 0 0 0 0 0 0 0 0 0 0 0 0 0 0 0 0 0 0 0 0 0 0 0 0 0 0 0 0 0 0 0 0 0 0 0 0 0 0 0 0 0 0 0 0 0 0 0 0 0 0 0 0 0 0 0 0 0 0 0 0 0 0 0 0 0 0 0 0 0 0 0 0 0 0 0 0 0 0 0 0 0 0 0 0 0 0 0 0 0 0 0 0 0 0 0 0 0 0 0 0 0 0 0 0 0 0 0 0 0 0 0 0 0 0 0 0 0 0 0 0 0 0 0 0 0 0 0 0 0 0 0 0 0 0 0 0 0 0 0 0 0 0 0 0 0 0 0 0 0 0 0 0 0 0 0 0 0 0 0 0 0 0 0 0 0 0 0 0 0 0 0 0 0 0 0 0 0 0 0 0 0 0 0 0 0 0 0 0 0 0 0 0 0 0 0 0 0 0 0 0 0 0 0 0 0 0 0 0 0 0 0 0 0 0 0 0 0 0 0 0 0 0 0 0 0 0 0 0 0 0 0 0 0 0 0 0 0 0 0 0 0 0 0 0 0 0 0 0 0 0 0 0 0 0 0 0 0 0 0 0 0 0 0 0 0 0 0 0 0 0 0 0 0 0 0 0 0 0 0 0 0 0 0 0 0 0 0 0 0 0 0 0 0 0 0 0 0 0 0 0 0 0 0 0 0 0 0 0 0 0 0 0 0 0 0 0 0 0 0 0 0 0 0 0 0 0 0 0 0 0 0 0 0 0 0 0 0 0 0 0 0 0 0 0 0 0 0 0 0 0 0 0 0 0 0 0 0 0 0 0 0 0 0 0 0 0 0 0 0 0 0 0 0 0 0 0 0 0 0 0 0 0 0 0 0 0 0 0 0 0 0 0 0 0 0 0 0 0 0 0 0 0 0 0 0 0 0 0 0 0 0 0 0 0 0 0 0 0 0 0 0 0 0 0 0 0 0 0 0 0 0 0 0 0 0 0 0 0 0 0 0 0 0 0 0 0 0 0 0 0 0 0 0 0 0 0 0 0 0 0 0 0 0 0 0 0 0 0 0 0 0 0 0 0 0 0 0 0 0 0 0 0 0 0 0 0 0 0 0 0 0 0 0 0 0 0 0 0 0 0 0 0 0 0 0 0 0 0 0 0 0 0 0 0 0 0 0 0 0 0 0 0 0 0 0 0 0 0 0 0 0 0 0 0 0 0 0 0 0 0 0 0 0 0 0 0 0 0 0 0 0 0 0 0 0 0 0 0 0 0 0 0 0 0 0 0 0 0 0 0 0 0 0 0 0 0 0 0 0 0 0 0 0 0 0 0 0 0 0 0 0 0 0 0 0 0 0 0 0 0 0 0 0 0 0 0 0 0 0 0 0 0 0 0 0 0 0 0 0 0 0 0 0 0 0 0 0 0 0 0 0 0 0 0 0 0 0 0 0 0 0 0 0 0 0 0 0 0 0 0 0 0 0 0 0 0 0 0 0 0 0 0 0 0 0 0 0 0 0 0 0 0 0 0 0 0 0 0 0 0 0 0 0 0 0 0 0 0 0 0 0 0 0 0 0 0 0 0 0 0 0 0 0 0 0 0 0 0 0 0 0 0 0 0 0 0 0 0 0 0 0 0 0 0 0 0 0 0 0 0 0 0 0 0 0 0 0 0 0 0 0 0 0 0 0 0 0 0 0 0 0 0 0 0 0 0 0 0 0 0 0 0 0 0 0 0 0 0 0 0 0 0 0 0 0 0 0 0 0 0 0 0 0 0 0 0 0 0 0 0 0 0 0 0 0 0 0 0 0 0 0 0 0 0 0 0 0 0 0 0 0 0 0 0 0 0 0 0 0 0 0 0 0 0 0 0 0 0 0 0 0 0 0 0 0 0 0 0 0 0 0 0 0 0 0 0 0 0 0 0 0 0 0 0 0 0 0 0 0 0 0 0 0 0 0 0 0 0 0 0 0 0 0 0 0 0 0 0 0 0 0 0 0 0 0 0 0 0 0 0 0 0 0 0 0 0 0 0 0 0 0 0 0 0 0 0 0 0 0 0 0 0 0 0 0 0 0 0 0 0 0 0 0 0 0 0 0 0 0 0 0 0 0 0 0 0 0 0 0 0 0 0 0 0 0 0 0 0 0 0 0 0 0 0 0 0 0 0 0 0 0 0 0 0 0 0 0 0 0 0 0 0 0 0 0 0 0 0 0 0 0 0 0 0 0 0 0 0 0 0 0 0 0 0 0 0 0 0 0 0 0 0 0 0 0 0 0 0 0 0 0 0 0 0 0 0 0 0 0 0 0 0 0 0 0 0 0 0 0 0 0 0 0 0 0 0 0 0 0 0 0 0 0 0 0 0 0 0 0 0 0 0 0 0 0 0 0 0 0 0 0 0 0 0 0 0 0 0 0 0 0 0 0 0 0 0 0 0 0 0 0 0 0 0 0 0 0 0 0 0 0 0 0 0 0 0 0 0 0 0 0 0 0 0 0 0 0 0 0 0 0 0 0 0 0 0 0 0 0 0 0 0 0 0 0 0 0 0 0 0 0 0 0 0 0 0 0 0 0 0 0 0 0 0 0 0 0 0 0 0 0 0 0 0 0 0 0 0 0 0 0 0 0 0 0 0 0 0 0 0 0 0 0 0 0 0 0 0 0 0 0 0 0 0 0 0 0 0 0 0 0 0 0 0 0 0 0 0 0 0 0 0 0 0 0 0 0 0 0 0 0 0 0 0 0 0 0 0 0 0 0 0 0 0 0 0 0 0 0 0 0 0 0 0 0 0 0 0 0 0 0 0 0 0 0 0 0 0 0 0 0 0 0 0 0 0 0 0 0 0 0 0 0 0 0 0 0 0 0 0 0 0 0 0 0 0 0 0 0 0 0 0 0 0 0 0 0 0 0 0 0 0 0 0 0 0 0 0 0 0 0 0 0 0 0 0 0 0 0 0 0 0 0 0 0 0 0 0 0 0 0 0 0 0 0 0 0 0 0 0 0 0 0 0 0 0 0 0 0 0 0 0 0 0 0 0 0 0 0 0 0 0 0 0 0 0 0 0 0 0 0 0 0 0 0 0 0 0 0 0 0 0 0 0 0 0 0 0 0 0 0 0 0 0 0 0 0 0 0 0 0 0 0 0 0 0 0 0 0 0 0 0 0 0 0 0 0 0 0 0 0 0 0 0 0 0 0 0 0 0 0 0 0 0 0 0 0 0 0 0 0 0 0 0 0 0 0 0 0 0 0 0 0 0 0 0 0 0 0 0 0 0 0 0 0 0 0 0 0 0 0 0 0 0 0 0 0 0 0 0 0 0 0 0 0 0 0 0 0 0 0 0 0 0 0 0 0 0 0 0 0 0 0 0 0 0 0 0 0 0 0 0 0 0 0 0 0 0 0 0 0 0 0 0 0 0 0 0 0 0 0 0 0 0 0 0 0 0 0 0 0 0 0 0 0 0 0 0 0 0 0 0 0 0 0 0 0 0 0 0 0 0 0 0 0 0 0 0 0 0 0 0 0 0 0 0 0 0 0 0 0 0 0 0 0 0 0 0 0 0 0 0 0 0 0 0 0 0 0 0 0 0 0 0 0 0 0 0 0 0 0 0 0 0 0 0 0 0 0 0 0 0 0 0 0 0 0 0 0 0 0 0 0 0 0 0 0 0 0 0 0 0 0 0 0 0 0 0 0 0 0 0 0 0 0 0 0 0 0 0 0 0 0 0 0 0 0 0 0 0 0 0 0 0 0 0 0 0 0 0 0 0 0 0 0 0 0 0 0 0 0 0 0 0 0 0 0 0 0 0 0 0 0 0 0 0 0 0 0 0 0 0 0 0 0 0 0 0 0 0 0 0 0 0 0 0 0 0 0 0 0 0 0 0 0 0 0 0 0 0 0 0 0 0 0 0 0 0 0 0 0 0 0 0 0 0 0 0 0 0 0 0 0 0 0 0 0 0 0 0 0 0 0 0 0 0 0 0 0 0 0 0 0 0 0 0 0 0 0 0 0 0 0 0 0 0 0 0 0 0 0 0 0 0 0 0 0 0 0 0 0 0 0 0 0 0 0 0 0 0 0 0 0 0 0 0 0 0 0 0 0 0 0 0 0 0 0 0 0 0 0 0 0 0 0 0 0 0 0 0 0 0 0 0 0 0 0 0 0 0 0 0 0 0 0 0 0 0 0 0 0 0 0 0 0 0 0 0 0 0 0 0 0 0 0 0 0 0 0 0 0 0 0 0 0 0 0 0 0 0 0 0 0 0 0 0 0 0 0 0 0 0 0 0 0 0 0 0 0 0 0 0 0 0 0 0 0 0 0 0 0 0 0 0 0 0 0 0 0 0 0 0 0 0 0 0 0 0 0 0 0 0 0 0 0 0 0 0 0 0 0 0 0 0 0 0 0 0 0 0 0 0 0 0 0 0 0 0 0 0 0 0 0 0 0 0 0 0 0 0 0 0 0 0 0 0 0 0 0 0 0 0 0 0 0 0 0 0 0 0 0 0 0 0 0 0 0 0 0 0 0 0 0 0 0 0 0 0 0 0 0 0 0 0 0 0 0 0 0 0 0 0 0 0 0 0 0 0 0 0 0 0 0 0 0 0 0 0 0 0 0 0 0 0 0 0 0 0 0 0 0 0 0 0 0 0 0 0 0 0 0 0 0 0 0 0 0 0 0 0 0 0 0 0 0 0 0 0 0 0 0 0 0 0 0 0 0 0 0 0 0 0 0 0 0 0 0 0 0 0 0 0 0 0 0 0 0 0 0 0 0 0 0 0 0 0 0 0 0 0 0 0 0 0 0 0 0 0 0 0 0 0 0 0 0 0 0 0 0 0 0 0 0 0 0 0 0 0 0 0 0 0 0 0 0 0 0 0 0 0 0 0 0 0 0 0 0 0 0 0 0 0 0 0 0 0 0 0 0 0 0 0 0 0 0 0 0 0 0 0 0 0 0 0 0 0 0 0 0 0 0 0 0 0 0 0 0 0 0 0 0 0 0 0 0 0 0 0 0 0 0 0 0 0 0 0 0 0 0 0 0 0 0 0 0 0 0 0 0 0 0 0 0 0 0 0 0 0 0 0 0 0 0 0 0 0 0 0 0 0 0 0 0 0 0 0 0 0 0 0 0 0 0 0 0 0 0 0 0 0 0 0 0 0 0 0 0 0 0 0 0 0 0 0 0 0 0 0 0 0 0 0 0 0 0 0 0 0 0 0 0 0 0 0 0 0 0 0 0 0 0 0 0 0 0 0 0 0 0 0 0 0 0 0 0 0 0 0 0 0 0 0 0 0 0 0 0 0 0 0 0 0 0 0 0 0 0 0 0 0 0 0 0 0 0 0 0 0 0 0 0 0 0 0 0 0 0 0 0 0 0 0 0 0 0 0 0 0 0 0 0 0 0 0 0 0 0 0 0 0 0 0 0 0 0 0 0 0 0 0 0 0 0 0 0 0 0 0 0 0 0 0 0 0 0 0 0 0 0 0 0 0 0 0 0 0 0 0 0 0 0 0 0 0 0 0 0 0 0 0 0 0 0 0 0 0 0 0 0 0 0 0 0 0 0 0 0 0 0 0 0 0 0 0 0 0 0 0 0 0 0 0 0 0 0 0 0 0 0 0 0 0 0 0 0 0 0 0 0 0 0 0 0 0 0 0 0 0 0 0 0 0 0 0 0 0 0 0 0 0 0 0 0 0 0 0 0 0 0 0 0 0 0 0 0 0 0 0 0 0 0 0 0 0 0 0 0 0 0 0 0 0 0 0 0 0 0 0 0 0 0 0 0 0 0 0 0 0 0 0 0 0 0 0 0 0 0 0 0 0 0 0 0 0 0 0 0 0 0 0 0 0 0 0 0 0 0 0 0 0 0 0 0 0 0 0 0 0 0 0 0 0 0 0 0 0 0 0 0 0 0 0 0 0 0 0 0 0 0 0 0 0 0 0 0 0 0 0 0 0 0 0 0 0 0 0 0 0 0 0 0 0 0 0 0 0 0 0 0 0 0 0 0 0 0 0 0 0 0 0 0 0 0 0 0 0 0 0 0 0 0 0 0 0 0 0 0 0 0 0 0 0 0 0 0 0 0 0 0 0 0 0 0 0 0 0 0 0 0 0 0 0 0 0 0 0 0 0 0 0 0 0 0 0 0 0 0 0 0 0 0 0 0 0 0 0 0 0 0 0 0 0 0 0 0 0 0 0 0 0 0 0 0 0 0 0 0 0 0 0 0 0 0 0 0 0 0 0 0 0 0 0 0 0 0 0 0 0 0 0 0 0 0 0 0 0 0 0 0 0 0 0 0 0 0 0 0 0 0 0 0 0 0 0 0 0 0 0 0 0 0 0 0 0 0 0 0 0 0 0 0 0 0 0 0 0 0 0 0 0 0 0 0 0 0 0 0 0 0 0 0 0 0 0 0 0 0 0 0 0 0 0 0 0 0 0 0 0 0 0 0 0 0 0 0 0 0 0 0 0 0 0 0 0 0 0 0 0 0 0 0 0 0 0 0 0 0 0 0 0 0 0 0 0 0 0 0 0 0 0 0 0 0 0 0 0 0 0 0 0 0 0 0 0 0 0 0 0 0 0 0 0 0 0 0 0 0 0 0 0 0 0 0 0 0 0 0 0 0 0 0 0 0 0 0 0 0 0 0 0 0 0 0 0 0 0 0 0 0 0 0 0 0 0 0 0 0 0 0 0 0 0 0 0 0 0 0 0 0 0 0 0 0 0 0 0 0 0 0 0 0 0 0 0 0 0 0 0 0 0 0 0 0 0 0 0 0 0 0 0 0 0 0 0 0 0 0 0 0 0 0 0 0 0 0 0 0 0 0 0 0 0 0 0 0 0 0 0 0 0 0 0 0 0 0 0 0 0 0 0 0 0 0 0 0 0 0 0 0 0 0 0 0 0 0 0 0 0 0 0 0 0 0 0 0 0 0 0 0 0 0 0 0 0 0 0 0 0 0 0 0 0 0 0 0 0 0 0 0 0 0 0 0 0 0 0 0 0 0 0 0 0 0 0 0 0 0 0 0 0 0 0 0 0 0 0 0 0 0 0 0 0 0 0 0 0 0 0 0 0 0 0 0 0 0 0 0 0 0 0 0 0 0 0 0 0 0 0 0 0 0 0 0 0 0 0 0 0 0 0 0 0 0 0 0 0 0 0 0 0 0 0 0 0 0 0 0 0 0 0 0 0 0 0 0 0 0 0 0 0 0 0 0 0 0 0 0 0 0 0 0 0 0 0 0 0 0 0 0 0 0 0 0 0 0 0 0 0 0 0 0 0 0 0 0 0 0 0 0 0 0 0 0 0 0 0 0 0 0 0 0 0 0 0 0 0 0 0 0 0 0 0 0 0 0 0 0 0 0 0 0 0 0 0 0 0 0 0 0 0 0 0 0 0 0 0 0 0 0 0 0 0 0 0 0 0 0 0 0 0 0 0 0 0 0 0 0 0 0 0 0 0 0 0 0 0 0 0 0 0 0 0 0 0 0 0 0 0 0 0 0 0 0 0 0 0 0 0 0 0 0 0 0 0 0 0 0 0 0 0 0 0 0 0 0 0 0 0 0 0 0 0 0 0 0 0 0 0 0 0 0 0 0 0 0 0 0 0 0 0 0 0 0 0 0 0 0 0 0 0 0 0 0 0 0 0 0 0 0 0 0 0 0 0 0 0 0 0 0 0 0 0 0 0 0 0 0 0 0 0 0 0 0 0 0 0 0 0 0 0 0 0 0 0 0 0 0 0 0 0 0 0 0 0 0 0 0 0 0 0 0 0 0 0 0 0 0 0 0 0 0 0 0 0 0 0 0 0 0 0 0 0 0 0 0 0 0 0 0 0 0 0 0 0 0 0 0 0 0 0 0 0 0 0 0 0 0 0 0 0 0 0 0 0 0 0 0 0 0 0 0 0 0 0 0 0 0 0 0 0 0 0 0 0 0 0 0 0 0 0 0 0 0 0 0 0 0 0 0 0 0 0 0 0 0 0 0 0 0 0 0 0 0 0 0 0 0 0 0 0 0 0 0 0 0 0 0 0 0 0 0 0 0 0 0 0 0 0 0 0 0 0 0 0 0 0 0 0 0 0 0 0 0 0 0 0 0 0 0 0 0 0 0 0 0 0 0 0 0 0 0 0 0 0 0 0 0 0 0 0 0 0 0 0 0 0 0 0 0 0 0 0 0 0 0 0 0 0 0 0 0 0 0 0 0 0 0 0 0 0 0 0 0 0 0 0 0 0 0 0 0 0 0 0 0 0 0 0 0 0 0 0 0 0 0 0 0 0 0 0 0 0 0 0 0 0 0 0 0 0 0 0 0 0 0 0 0 0 0 0 0 0 0 0 0 0 0 0 0 0 0 0 0 0 0 0 0 0 0 0 0 0 0 0 0 0 0 0 0 0 0 0 0 0 0 0 0 0 0 0 0 0 0 0 0 0 0 0 0 0 0 0 0 0 0 0 0 0 0 0 0 0 0 0 0 0 0 0 0 0 0 0 0 0 0 0 0 0 0 0 0 0 0 0 0 0 0 0 0 0 0 0 0 0 0 0 0 0 0 0 0 0 0 0 0 0 0 0 0 0 0 0 0 0 0 0 0 0 0 0 0 0 0 0 0 0 0 0 0 0 0 0 0 0 0 0 0 0 0 0 0 0 0 0 0 0 0 0 0 0 0 0 0 0 0 0 0 0 0 0 0 0 0 0 0 0 0 0 0 0 0 0 0 0 0 0 0 0 0 0 0 0 0 0 0 0 0 0 0 0 0 0 0 0 0 0 0 0 0 0 0 0 0 0 0 0 0 0 0 0 0 0 0 0 0 0 0 0 0 0 0 0 0 0 0 0 0 0 0 0 0 0 0 0 0 0 0 0 0 0 0 0 0 0 0 0 0 0 0 0 0 0 0 0 0 0 0 0 0 0 0 0 0 0 0 0 0 0 0 0 0 0 0 0 0 0 0 0 0 0 0 0 0 0 0 0 0 0 0 0 0 0 0 0 0 0 0 0 0 0 0 0 0 0 0 0 0 0 0 0 0 0 0 0 0 0 0 0 0 0 0 0 0 0 0 0 0 0 0 0 0 0 0 0 0 0 0 0 0 0 0 0 0 0 0 0 0 0 0 0 0 0 0 0 0 0 0 0 0 0 0 0 0 0 0 0 0 0 0 0 0 0 0 0 0 0 0 0 0 0 0 0 0 0 0 0 0 0 0 0 0 0 0 0 0 0 0 0 0 0 0 0 0 0 0 0 0 0 0 0 0 0 0 0 0 0 0 0 0 0 0 0 0 0 0 0 0 0 0 0 0 0 0 0 0 0 0 0 0 0 0 0 0 0 0 0 0 0 0 0 0 0 0 0 0 0 0 0 0 0 0 0 0 0 0 0 0 0 0 0 0 0 0 0 0 0 0 0 0 0 0 0 0 0 0 0 0 0 0 0 0 0 0 0 0 0 0 0 0 0 0 0 0 0 0 0 0 0 0 0 0 0 0 0 0 0 0 0 0 0 0 0 0 0 0 0 0 0 0 0 0 0 0 0 0 0 0 0 0 0 0 0 0 0 0 0 0 0 0 0 0 0 0 0 0 0 0 0 0 0 0 0 0 0 0 0 0 0 0 0 0 0 0 0 0 0 0 0 0 0 0 0 0 0 0 0 0 0 0 0 0 0 0 0 0 0 0 0 0 0 0 0 0 0 0 0 0 0 0 0 0 0 0 0 0 0 0 0 0 0 0 0 0 0 0 0 0 0 0 0 0 0 0 0 0 0 0 0 0 0 0 0 0 0 0 0 0 0 0 0 0 0 0 0 0 0 0 0 0 0 0 0 0 0 0 0 0 0 0 0 0 0 0 0 0 0 0 0 0 0 0 0 0 0 0 0 0 0 0 0 0 0 0 0 0 0 0 0 0 0 0 0 0 0 0 0 0 0 0 0 0 0 0 0 0 0 0 0 0 0 0 0 0 0 0 0 0 0 0 0 0 0 0 0 0 0 0 0 0 0 0 0 0 0 0 0 0 0 0 0 0 0 0 0 0 0 0 0 0 0 0 0 0 0 0 0 0 0 0 0 0 0 0 0 0 0 0 0 0 0 0 0 0 0 0 0 0 0 0 0 0 0 0 0 0 0 0 0 0 0 0 0 0 0 0 0 0 0 0 0 0 0 0 0 0 0 0 0 0 0 0 0 0 0 0 0 0 0 0 0 0 0 0 0 0 0 0 0 0 0 0 0 0 0 0 0 0 0 0 0 0 0 0 0 0 0 0 0 0 0 0 0 0 0 0 0 0 0 0 0 0 0 0 0 0 0 0 0 0 0 0 0 0 0 0 0 0 0 0 0 0 0 0 0 0 0 0 0 0 0 0 0 0 0 0 0 0 0 0 0 0 0 0 0 0 0 0 0 0 0 0 0 0 0 0 0 0 0 0 0 0 0 0 0 0 0 0 0 0 0 0 0 0 0 0 0 0 0 0 0 0 0 0 0 0 0 0 0 0 0 0 0 0 0 0 0 0 0 0 0 0 0 0 0 0 0 0 0 0 0 0 0 0 0 0 0 0 0 0 0 0 0 0 0 0 0 0 0 0 0 0 0 0 0 0 0 0 0 0 0 0 0 0 0 0 0 0 0 0 0 0 0 0 0 0 0 0 0 0 0 0 0 0 0 0 0 0 0 0 0 0 0 0 0 0 0 0 0 0 0 0 0 0 0 0 0 0 0 0 0 0 0 0 0 0 0 0 0 0 0 0 0 0 0 0 0 0 0 0 0 0 0 0 0 0 0 0 0 0 0 0 0 0 0 0 0 0 0 0 0 0 0 0 0 0 0 0 0 0 0 0 0 0 0 0 0 0 0 0 0 0 0 0 0 0 0 0 0 0 0 0 0 0 0 0 0 0 0 0 0 0 0 0 0 0 0 0 0 0 0 0 0 0 0 0 0 0 0 0 0 0 0 0 0 0 0 0 0 0 0 0 0 0 0 0 0 0 0 0 0 0 0 0 0 0 0 0 0 0 0 0 0 0 0 0 0 0 0 0 0 0 0 0 0 0 0 0 0 0 0 0 0 0 0 0 0 0 0 0 0 0 0 0 0 0 0 0 0 0 0 0 0 0 0 0 0 0 0 0 0 0 0 0 0 0 0 0 0 0 0 0 0 0 0 0 0 0 0 0 0 0 0 0 0 0 0 0 0 0 0 0 0 0 0 0 0 0 0 0 0 0 0 0 0 0 0 0 0 0 0 0 0 0 0 0 0 0 0 0 0 0 0 0 0 0 0 0 0 0 0 0 0 0 0 0 0 0 0 0 0 0 0 0 0 0 0 0 0 0 0 0 0 0 0 0 0 0 0 0 0 0 0 0 0 0 0 0 0 0 0 0 0 0 0 0 0 0 0 0 0 0 0 0 0 0 0 0 0 0 0 0 0 0 0 0 0 0 0 0 0 0 0 0 0 0 0 0 0 0 0 0 0 0 0 0 0 0 0 0 0 0 0 0 0 0 0 0 0 0 0 0 0 0 0 0 0 0 0 0 0 0 0 0 0 0 0 0 0 0 0 0 0 0 0 0 0 0 0 0 0 0 0 0 0 0 0 0 0 0 0 0 0 0 0 0 0 0 0 0 0 0 0 0 0 0 0 0 0 0 0 0 0 0 0 0 0 0 0 0 0 0 0 0 0 0 0 0 0 0 0 0 0 0 0 0 0 0 0 0 0 0 0 0 0 0 0 0 0 0 0 0 0 0 0 0 0 0 0 0 0 0 0 0 0 0 0 0 0 0 0 0 0 0 0 0 0 0 0 0 0 0 0 0 0 0 0 0 0 0 0 0 0 0 0 0 0 0 0 0 0 0 0 0 0 0 0 0 0 0 0 0 0 0 0 0 0 0 0 0 0 0 0 0 0 0 0 0 0 0 0 0 0 0 0 0 0 0 0 0 0 0 0 0 0 0 0 0 0 0 0 0 0 0 0 0 0 0 0 0 0 0 0 0 0 0 0 0 0 0 0 0 0 0 0 0 0 0 0 0 0 0 0 0 0 0 0 0 0 0 0 0 0 0 0 0 0 0 0 0 0 0 0 0 0 0 0 0 0 0 0 0 0 0 0 0 0 0 0 0 0 0 0 0 0 0 0 0 0 0 0 0 0 0 0 0 0 0 0 0 0 0 0 0 0 0 0 0 0 0 0 0 0 0 0 0 0 0 0 0 0 0 0 0 0 0 0 0 0 0 0 0 0 0 0 0 0 0 0 0 0 0 0 0 0 0 0 0 0 0 0 0 0 0 0 0 0 0 0 0 0 0 0 0 0 0 0 0 0 0 0 0 0 0 0 0 0 0 0 0 0 0 0 0 0 0 0 0 0 0 0 0 0 0 0 0 0 0 0 0 0 0 0 0 0 0 0 0 0 0 0 0 0 0 0 0 0 0 0 0 0 0 0 0 0 0 0 0 0 0 0 0 0 0 0 0 0 0 0 0 0 0 0 0 0 0 0 0 0 0 0 0 0 0 0 0 0 0 0 0 0 0 0 0 0 0 0 0 0 0 0 0 0 0 0 0 0 0 0 0 0 0 0 0 0 0 0 0 0 0 0 0 0 0 0 0 0 0 0 0 0 0 0 0 0 0 0 0 0 0 0 0 0 0 0 0 0 0 0 0 0 0 0 0 0 0 0 0 0 0 0 0 0 0 0 0 0 0 0 0 0 0 0 0 0 0 0 0 0 0 0 0 0 0 0 0 0 0 0 0 0 0 0 0 0 0 0 0 0 0 0 0 0 0 0 0 0 0 0 0 0 0 0 0 0 0 0 0 0 0 0 0 0 0 0 0 0 0 0 0 0 0 0 0 0 0 0 0 0 0 0 0 0 0 0 0 0 0 0 0 0 0 0 0 0 0 0 0 0 0 0 0 0 0 0 0 0 0 0 0 0 0 0 0 0 0 0 0 0 0 0 0 0 0 0 0 0 0 0 0 0 0 0 0 0 0 0 0 0 0 0 0 0 0 0 0 0 0 0 0 0 0 0 0 0 0 0 0 0 0 0 0 0 0 0 0 0 0 0 0 0 0 0 0 0 0 0 0 0 0 0 0 0 0 0 0 0 0 0 0 0 0 0 0 0 0 0 0 0 0 0 0 0 0 0 0 0 0 0 0 0 0 0 0 0 0 0 0 0 0 0 0 0 0 0 0 0 0 0 0 0 0 0 0 0 0 0 0 0 0 0 0 0 0 0 0 0 0 0 0 0 0 0 0 0 0 0 0 0 0 0 0 0 0 0 0 0 0 0 0 0 0 0 0 0 0 0 0 0 0 0 0 0 0 0 0 0 0 0 0 0 0 0 0 0 0 0 0 0 0 0 0 0 0 0 0 0 0 0 0 0 0 0 0 0 0 0 0 0 0 0 0 0 0 0 0 0 0 0 0 0 0 0 0 0 0 0 0 0 0 0 0 0 0 0 0 0 0 0 0 0 0 0 0 0 0 0 0 0 0 0 0 0 0 0 0 0 0 0 0 0 0 0 0 0 0 0 0 0 0 0 0 0 0 0 0 0 0 0 0 0 0 0 0 0 0 0 0 0 0 0 0 0 0 0 0 0 0 0 0 0 0 0 0 0 0 0 0 0 0 0 0 0 0 0 0 0 0 0 0 0 0 0 0 0 0 0 0 0 0 0 0 0 0 0 0 0 0 0 0 0 0 0 0 0 0 0 0 0 0 0 0 0 0 0 0 0 0 0 0 0 0 0 0 0 0 0 0 0 0 0 0 0 0 0 0 0 0 0 0 0 0 0 0 0 0 0 0 0 0 0 0 0 0 0 0 0 0 0 0 0 0 0 0 0 0 0 0 0 0 0 0 0 0 0 0 0 0 0 0 0 0 0 0 0 0 0 0 0 0 0 0 0 0 0 0 0 0 0 0 0 0 0 0 0 0 0 0 0 0 0 0 0 0 0 0 0 0 0 0 0 0 0 0 0 0 0 0 0 0 0 0 0 0 0 0 0 0 0 0 0 0 0 0 0 0 0 0 0 0 0 0 0 0 0 0 0 0 0 0 0 0 0 0 0 0 0 0 0 0 0 0 0 0 0 0 0 0 0 0 0 0 0 0 0 0 0 0 0 0 0 0 0 0 0 0 0 0 0 0 0 0 0 0 0 0 0 0 0 0 0 0 0 0 0 0 0 0 0 0 0 0 0 0 0 0 0 0 0 0 0 0 0 0 0 0 0 0 0 0 0 0 0 0 0 0 0 0 0 0 0 0 0 0 0 0 0 0 0 0 0 0 0 0 0 0 0 0 0 0 0 0 0 0 0 0 0 0 0 0 0 0 0 0 0 0 0 0 0 0 0 0 0 0 0 0 0 0 0 0 0 0 0 0 0 0 0 0 0 0 0 0 0 0 0 0 0 0 0 0 0 0 0 0 0 0 0 0 0 0 0 0 0 0 0 0 0 0 0 0 0 0 0 0 0 0 0 0 0 0 0 0 0 0 0 0 0 0 0 0 0 0 0 0 0 0 0 0 0 0 0 0 0 0 0 0 0 0 0 0 0 0 0 0 0 0 0 0 0 0 0 0 0 0 0 0 0 0 0 0 0 0 0 0 0 0 0 0 0 0 0 0 0 0 0 0 0 0 0 0 0 0 0 0 0 0 0 0 0 0 0 0 0 0 0 0 0 0 0 0 0 0 0 0 0 0 0 0 0 0 0 0 0 0 0 0 0 0 0 0 0 0 0 0 0 0 0 0 0 0 0 0 0 0 0 0 0 0 0 0 0 0 0 0 0 0 0 0 0 0 0 0 0 0 0 0 0 0 0 0 0 0 0 0 0 0 0 0 0 0 0 0 0 0 0 0 0 0 0 0 0 0 0 0 0 0 0 0 0 0 0 0 0 0 0 0 0 0 0 0 0 0 0 0 0 0 0 0 0 0 0 0 0 0 0 0 0 0 0 0 0 0 0 0 0 0 0 0 0 0 0 0 0 0 0 0 0 0 0 0 0 0 0 0 0 0 0 0 0 0 0 0 0 0 0 0 0 0 0 0 0 0 0 0 0 0 0 0 0 0 0 0 0 0 0 0 0 0 0 0 0 0 0 0 0 0 0 0 0 0 0 0 0 0 0 0 0 0 0 0 0 0 0 0 0 0 0 0 0 0 0 0 0 0 0 0 0 0 0 0 0 0 0 0 0 0 0 0 0 0 0 0 0 0 0 0 0 0 0 0 0 0 0 0 0 0 0 0 0 0 0 0 0 0 0 0 0 0 0 0 0 0 0 0 0 0 0 0 0 0 0 0 0 0 0 0 0 0 0 0 0 0 0 0 0 0 0 0 0 0 0 0 0 0 0 0 0 0 0 0 0 0 0 0 0 0 0 0 0 0 0 0 0 0 0 0 0 0 0 0 0 0 0 0 0 0 0 0 0 0 0 0 0 0 0 0 0 0 0 0 0 0 0 0 0 0 0 0 0 0 0 0 0 0 0 0 0 0 0 0 0 0 0 0 0 0 0 0 0 0 0 0 0 0 0 0 0 0 0 0 0 0 0 0 0 0 0 0 0 0 0 0 0 0 0 0 0 0 0 0 0 0 0 0 0 0 0 0 0 0 0 0 0 0 0 0 0 0 0 0 0 0 0 0 0 0 0 0 0 0 0 0 0 0 0 0 0 0 0 0 0 0 0 0 0 0 0 0 0 0 0 0 0 0 0 0 0 0 0 0 0 0 0 0 0 0 0 0 0 0 0 0 0 0 0 0 0 0 0 0 0 0 0 0 0 0 0 0 0 0 0 0 0 0 0 0 0 0 0 0 0 0 0 0 0 0 0 0 0 0 0 0 0 0 0 0 0 0 0 0 0 0 0 0 0 0 0 0 0 0 0 0 0 0 0 0 0 0 0 0 0 0 0 0 0 0 0 0 0 0 0 0 0 0 0 0 0 0 0 0 0 0 0 0 0 0 0 0 0 0 0 0 0 0 0 0 0 0 0 0 0 0 0 0 0 0 0 0 0 0 0 0 0 0 0 0 0 0 0 0 0 0 0 0 0 0 0 0 0 0 0 0 0 0 0 0 0 0 0 0 0 0 0 0 0 0 0 0 0 0 0 0 0 0 0 0 0 0 0 0 0 0 0 0 0 0 0 0 0 0 0 0 0 0 0 0 0 0 0 0 0 0 0 0 0 0 0 0 0 0 0 0 0 0 0 0 0 0 0 0 0 0 0 0 0 0 0 0 0 0 0 0 0 0 0 0 0 0 0 0 0 0 0 0 0 0 0 0 0 0 0 0 0 0 0 0 0 0 0 0 0 0 0 0 0 0 0 0 0 0 0 0 0 0 0 0 0 0 0 0 0 0 0 0 0 0 0 0 0 0 0 0 0 0 0 0 0 0 0 0 0 0 0 0 0 0 0 0 0 0 0 0 0 0 0 0 0 0 0 0 0 0 0 0 0 0 0 0 0 0 0 0 0 0 0 0 0 0 0 0 0 0 0 0 0 0 0 0 0 0 0 0 0 0 0 0 0 0 0 0 0 0 0 0 0 0 0 0 0 0 0 0 0 0 0 0 0 0 0 0 0 0 0 0 0 0 0 0 0 0 0 0 0 0 0 0 0 0 0 0 0 0 0 0 0 0 0 0 0 0 0 0 0 0 0 0 0 0 0 0 0 0 0 0 0 0 0 0 0 0 0 0 0 0 0 0 0 0 0 0 0 0 0 0 0 0 0 0 0 0 0 0 0 0 0 0 0 0 0 0 0 0 0 0 0 0 0 0 0 0 0 0 0 0 0 0 0 0 0 0 0 0 0 0 0 0 0 0 0 0 0 0 0 0 0 0 0 0 0 0 0 0 0 0 0 0 0 0 0 0 0 0 0 0 0 0 0 0 0 0 0 0 0 0 0 0 0 0 0 0 0 0 0 0 0 0 0 0 0 0 0 0 0 0 0 0 0 0 0 0 0 0 0 0 0 0 0 0 0 0 0 0 0 0 0 0 0 0 0 0 0 0 0 0 0 0 0 0 0 0 0 0 0 0 0 0 0 0 0 0 0 0 0 0 0 0 0 0 0 0 0 0 0 0 0 0 0 0 0 0 0 0 0 0 0 0 0 0 0 0 0 0 0 0 0 0 0 0 0 0 0 0 0 0 0 0 0 0 0 0 0 0 0 0 0 0 0 0 0 0 0 0 0 0 0 0 0 0 0 0 0 0 0 0 0 0 0 0 0 0 0 0 0 0 0 0 0 0 0 0 0 0 0 0 0 0 0 0 0 0 0 0 0 0 0 0 0 0 0 0 0 0 0 0 0 0 0 0 0 0 0 0 0 0 0 0 0 0 0 0 0 0 0 0 0 0 0 0 0 0 0 0 0 0 0 0 0 0 0 0 0 0 0 0 0 0 0 0 0 0 0 0 0 0 0 0 0 0 0 0 0 0 0 0 0 0 0 0 0 0 0 0 0 0 0 0 0 0 0 0 0 0 0 0 0 0 0 0 0 0 0 0 0 0 0 0 0 0 0 0 0 0 0 0 0 0 0 0 0 0 0 0 0 0 0 0 0 0 0 0 0 0 0 0 0 0 0 0 0 0 0 0 0 0 0 0 0 0 0 0 0 0 0 0 0 0 0 0 0 0 0 0 0 0 0 0 0 0 0 0 0 0 0 0 0 0 0 0 0 0 0 0 0 0 0 0 0 0 0 0 0 0 0 0 0 0 0 0 0 0 0 0 0 0 0 0 0 0 0 0 0 0 0 0 0 0 0 0 0 0 0 0 0 0 0 0 0 0 0 0 0 0 0 0 0 0 0 0 0 0 0 0 0 0 0 0 0 0 0 0 0 0 0 0 0 0 0 0 0 0 0 0 0 0 0 0 0 0 0 0 0 0 0 0 0 0 0 0 0 0 0 0 0 0 0 0 0 0 0 0 0 0 0 0 0 0 0 0 0 0 0 0 0 0 0 0 0 0 0 0 0 0 0 0 0 0 0 0 0 0 0 0 0 0 0 0 0 0 0 0 0 0 0 0 0 0 0 0 0 0 0 0 0 0 0 0 0 0 0 0 0 0 0 0 0 0 0 0 0 0 0 0 0 0 0 0 0 0 0 0 0 0 0 0 0 0 0 0 0 0 0 0 0 0 0 0 0 0 0 0 0 0 0 0 0 0 0 0 0 0 0 0 0 0 0 0 0 0 0 0 0 0 0 0 0 0 0 0 0 0 0 0 0 0 0 0 0 0 0 0 0 0 0 0 0 0 0 0 0 0 0 0 0 0 0 0 0 0 0 0 0 0 0 0 0 0 0 0 0 0 0 0 0 0 0 0 0 0 0 0 0 0 0 0 0 0 0 0 0 0 0 0 0 0 0 0 0 0 0 0 0 0 0 0 0 0 0 0 0 0 0 0 0 0 0 0 0 0 0 0 0 0 0 0 0 0 0 0 0 0 0 0 0 0 0 0 0 0 0 0 0 0 0 0 0 0 0 0 0 0 0 0 0 0 0 0 0 0 0 0 0 0 0 0 0 0 0 0 0 0 0 0 0 0 0 0 0 0 0 0 0 0 0 0 0 0 0 0 0 0 0 0 0 0 0 0 0 0 0 0 0 0 0 0 0 0 0 0 0 0 0 0 0 0 0 0 0 0 0 0 0 0 0 0 0 0 0 0 0 0 0 0 0 0 0 0 0 0 0 0 0 0 0 0 0 0 0 0 0 0 0 0 0 0 0 0 0 0 0 0 0 0 0 0 0 0 0 0 0 0 0 0 0 0 0 0 0 0 0 0 0 0 0 0 0 0 0 0 0 0 0 0 0 0 0 0 0 0 0 0 0 0 0 0 0 0 0 0 0 0 0 0 0 0 0 0 0 0 0 0 0 0 0 0 0 0 0 0 0 0 0 0 0 0 0 0 0 0 0 0 0 0 0 0 0 0 0 0 0 0 0 0 0 0 0 0 0 0 0 0 0 0 0 0 0 0 0 0 0 0 0 0 0 0 0 0 0 0 0 0 0 0 0 0 0 0 0 0 0 0 0 0 0 0 0 0 0 0 0 0 0 0 0 0 0 0 0 0 0 0 0 0 0 0 0 0 0 0 0 0 0 0 0 0 0 0 0 0 0 0 0 0 0 0 0 0 0 0 0 0 0 0 0 0 0 0 0 0 0 0 0 0 0 0 0 0 0 0 0 0 0 0 0 0 0 0 0 0 0 0 0 0 0 0 0 0 0 0 0 0 0 0 0 0 0 0 0 0 0 0 0 0 0 0 0 0 0 0 0 0 0 0 0 0 0 0 0 0 0 0 0 0 0 0 0 0 0 0 0 0 0 0 0 0 0 0 0 0 0 0 0 0 0 0 0 0 0 0 0 0 0 0 0 0 0 0 0 0 0 0 0 0 0 0 0 0 0 0 0 0 0 0 0 0 0 0 0 0 0 0 0 0 0 0 0 0 0 0 0 0 0 0 0 0 0 0 0 0 0 0 0 0 0 0 0 0 0 0 0 0 0 0 0 0 0 0 0 0 0 0 0 0 0 0 0 0 0 0 0 0 0 0 0 0 0 0 0 0 0 0 0 0 0 0 0 0 0 0 0 0 0 0 0 0 0 0 0 0 0 0 0 0 0 0 0 0 0 0 0 0 0 0 0 0 0 0 0 0 0 0 0 0 0 0 0 0 0 0 0 0 0 0 0 0 0 0 0 0 0 0 0 0 0 0 0 0 0 0 0 0 0 0 0 0 0 0 0 0 0 0 0 0 0 0 0 0 0 0 0 0 0 0 0 0 0 0 0 0 0 0 0 0 0 0 0 0 0 0 0 0 0 0 0 0 0 0 0 0 0 0 0 0 0 0 0 0 0 0 0 0 0 0 0 0 0 0 0 0 0 0 0 0 0 0 0 0 0 0 0 0 0 0 0 0 0 0 0 0 0 0 0 0 0 0 0 0 0 0 0 0 0 0 0 0 0 0 0 0 0 0 0 0 0 0 0 0 0 0 0 0 0 0 0 0 0 0 0 0 0 0 0 0 0 0 0 0 0 0 0 0 0 0 0 0 0 0 0 0 0 0 0 0 0 0 0 0 0 0 0 0 0 0 0 0 0 0 0 0 0 0 0 0 0 0 0 0 0 0 0 0 0 0 0 0 0 0 0 0 0 0 0 0 0 0 0 0 0 0 0 0 0 0 0 0 0 0 0 0 0 0 0 0 0 0 0 0 0 0 0 0 0 0 0 0 0 0 0 0 0 0 0 0 0 0 0 0 0 0 0 0 0 0 0 0 0 0 0 0 0 0 0 0 0 0 0 0 0 0 0 0 0 0 0 0 0 0 0 0 0 0 0 0 0 0 0 0 0 0 0 0 0 0 0 0 0 0 0 0 0 0 0 0 0 0 0 0 0 0 0 0 0 0 0 0 0 0 0 0 0 0 0 0 0 0 0 0 0 0 0 0 0 0 0 0 0 0 0 0 0 0 0 0 0 0 0 0 0 0 0 0 0 0 0 0 0 0 0 0 0 0 0 0 0 0 0 0 0 0 0 0 0 0 0 0 0 0 0 0 0 0 0 0 0 0 0 0 0 0 0 0 0 0 0 0 0 0 0 0 0 0 0 0 0 0 0 0 0 0 0 0 0 0 0 0 0 0 0 0 0 0 0 0 0 0 0 0 0 0 0 0 0 0 0 0 0 0 0 0 0 0 0 0 0 0 0 0 0 0 0 0 0 0 0 0 0 0 0 0 0 0 0 0 0 0 0 0 0 0 0 0 0 0 0 0 0 0 0 0 0 0 0 0 0 0 0 0 0 0 0 0 0 0 0 0 0 0 0 0 0 0 0 0 0 0 0 0 0 0 0 0 0 0 0 0 0 0 0 0 0 0 0 0 0 0 0 0 0 0 0 0 0 0 0 0 0 0 0 0 0 0 0 0 0 0 0 0 0 0 0 0 0 0 0 0 0 0 0 0 0 0 0 0 0 0 0 0 0 0 0 0 0 0 0 0 0 0 0 0 0 0 0 0 0 0 0 0 0 0 0 0 0 0 0 0 0 0 0 0 0 0 0 0 0 0 0 0 0 0 0 0 0 0 0 0 0 0 0 0 0 0 0 0 0 0 0 0 0 0 0 0 0 0 0 0 0 0 0 0 0 0 0 0 0 0 0 0 0 0 0 0 0 0 0 0 0 0 0 0 0 0 0 0 0 0 0 0 0 0 0 0 0 0 0 0 0 0 0 0 0 0 0 0 0 0 0 0 0 0 0 0 0 0 0 0 0 0 0 0 0 0 0 0 0 0 0 0 0 0 0 0 0 0 0 0 0 0 0 0 0 0 0 0 0 0 0 0 0 0 0 0 0 0 0 0 0 0 0 0 0 0 0 0 0 0 0 0 0 0 0 0 0 0 0 0 0 0 0 0 0 0 0 0 0 0 0 0 0 0 0 0 0 0 0 0 0 0 0 0 0 0 0 0 0 0 0 0 0 0 0 0 0 0 0 0 0 0 0 0 0 0 0 0 0 0 0 0 0 0 0 0 0 0 0 0 0 0 0 0 0 0 0 0 0 0 0 0 0 0 0 0 0 0 0 0 0 0 0 0 0 0 0 0 0 0 0 0 0 0 0 0 0 0 0 0 0 0 0 0 0 0 0 0 0 0 0 0 0 0 0 0 0 0 0 0 0 0 0 0 0 0 0 0 0 0 0 0 0 0 0 0 0 0 0 0 0 0 0 0 0 0 0 0 0 0 0 0 0 0 0 0 0 0 0 0 0 0 0 0 0 0 0 0 0 0 0 0 0 0 0 0 0 0 0 0 0 0 0 0 0 0 0 0 0 0 0 0 0 0 0 0 0 0 0 0 0 0 0 0 0 0 0 0 0 0 0 0 0 0 0 0 0 0 0 0 0 0 0 0 0 0 0 0 0 0 0 0 0 0 0 0 0 0 0 0 0 0 0 0 0 0 0 0 0 0 0 0 0 0 0 0 0 0 0 0 0 0 0 0 0 0 0 0 0 0 0 0 0 0 0 0 0 0 0 0 0 0 0 0 0 0 0 0 0 0 0 0 0 0 0 0 0 0 0 0 0 0 0 0 0 0 0 0 0 0 0 0 0 0 0 0 0 0 0 0 0 0 0 0 0 0 0 0 0 0 0 0 0 0 0 0 0 0 0 0 0 0 0 0 0 0 0 0 0 0 0 0 0 0 0 0 0 0 0 0 0 0 0 0 0 0 0 0 0 0 0 0 0 0 0 0 0 0 0 0 0 0 0 0 0 0 0 0 0 0 0 0 0 0 0 0 0 0 0 0 0 0 0 0 0 0 0 0 0 0 0 0 0 0 0 0 0 0 0 0 0 0 0 0 0 0 0 0 0 0 0 0 0 0 0 0 0 0 0 0 0 0 0 0 0 0 0 0 0 0 0 0 0 0 0 0 0 0 0 0 0 0 0 0 0 0 0 0 0 0 0 0 0 0 0 0 0 0 0 0 0 0 0 0 0 0 0 0 0 0 0 0 0 0 0 0 0 0 0 0 0 0 0 0 0 0 0 0 0 0 0 0 0 0 0 0 0 0 0 0 0 0 0 0 0 0 0 0 0 0 0 0 0 0 0 0 0 0 0 0 0 0 0 0 0 0 0 0 0 0 0 0 0 0 0 0 0 0 0 0 0 0 0 0 0 0 0 0 0 0 0 0 0 0 0 0 0 0 0 0 0 0 0 0 0 0 0 0 0 0 0 0 0 0 0 0 0 0 0 0 0 0 0 0 0 0 0 0 0 0 0 0 0 0 0 0 0 0 0 0 0 0 0 0 0 0 0 0 0 0 0 0 0 0 0 0 0 0 0 0 0 0 0 0 0 0 0 0 0 0 0 0 0 0 0 0 0 0 0 0 0 0 0 0 0 0 0 0 0 0 0 0 0 0 0 0 0 0 0 0 0 0 0 0 0 0 0 0 0 0 0 0 0 0 0 0 0 0 0 0 0 0 0 0 0 0 0 0 0 0 0 0 0 0 0 0 0 0 0 0 0 0 0 0 0 0 0 0 0 0 0 0 0 0 0 0 0 0 0 0 0 0 0 0 0 0 0 0 0 0 0 0 0 0 0 0 0 0 0 0 0 0 0 0 0 0 0 0 0 0 0 0 0 0 0 0 0 0 0 0 0 0 0 0 0 0 0 0 0 0 0 0 0 0 0 0 0 0 0 0 0 0 0 0 0 0 0 0 0 0 0 0 0 0 0 0 0 0 0 0 0 0 0 0 0 0 0 0 0 0 0 0 0 0 0 0 0 0 0 0 0 0 0 0 0 0 0 0 0 0 0 0 0 0 0 0 0 0 0 0 0 0 0 0 0 0 0 0 0 0 0 0 0 0 0 0 0 0 0 0 0 0 0 0 0 0 0 0 0 0 0 0 0 0 0 0 0 0 0 0 0 0 0 0 0 0 0 0 0 0 0 0 0 0 0 0 0 0 0 0 0 0 0 0 0 0 0 0 0 0 0 0 0 0 0 0 0 0 0 0 0 0 0 0 0 0 0 0 0 0 0 0 0 0 0 0 0 0 0 0 0 0 0 0 0 0 0 0 0 0 0 0 0 0 0 0 0 0 0 0 0 0 0 0 0 0 0 0 0 0 0 0 0 0 0 0 0 0 0 0 0 0 0 0 0 0 0 0 0 0 0 0 0 0 0 0 0 0 0 0 0 0 0 0 0 0 0 0 0 0 0 0 0 0 0 0 0 0 0 0 0 0 0 0 0 0 0 0 0 0 0 0 0 0 0 0 0 0 0 0 0 0 0 0 0 0 0 0 0 0 0 0 0 0 0 0 0 0 0 0 0 0 0 0 0 0 0 0 0 0 0 0 0 0 0 0 0 0 0 0 0 0 0 0 0 0 0 0 0 0 0 0 0 0 0 0 0 0 0 0 0 0 0 0 0 0 0 0 0 0 0 0 0 0 0 0 0 0 0 0 0 0 0 0 0 0 0 0 0 0 0 0 0 0 0 0 0 0 0 0 0 0 0 0 0 0 0 0 0 0 0 0 0 0 0 0 0 0 0 0 0 0 0 0 0 0 0 0 0 0 0 0 0 0 0 0 0 0 0 0 0 0 0 0 0 0 0 0 0 0 0 0 0 0 0 0 0 0 0 0 0 0 0 0 0 0 0 0 0 0 0 0 0 0 0 0 0 0 0 0 0 0 0 0 0 0 0 0 0 0 0 0 0 0 0 0 0 0 0 0 0 0 0 0 0 0 0 0 0 0 0 0 0 0 0 0 0 0 0 0 0 0 0 0 0 0 0 0 0 0 0 0 0 0 0 0 0 0 0 0 0 0 0 0 0 0 0 0 0 0 0 0 0 0 0 0 0 0 0 0 0 0 0 0 0 0 0 0 0 0 0 0 0 0 0 0 0 0 0 0 0 0 0 0 0 0 0 0 0 0 0 0 0 0 0 0 0 0 0 0 0 0 0 0 0 0 0 0 0 0 0 0 0 0 0 0 0 0 0 0 0 0 0 0 0 0 0 0 0 0 0 0 0 0 0 0 0 0 0 0 0 0 0 0 0 0 0 0 0 0 0 0 0 0 0 0 0 0 0 0 0 0 0 0 0 0 0 0 0 0 0 0 0 0 0 0 0 0 0 0 0 0 0 0 0 0 0 0 0 0 0 0 0 0 0 0 0 0 0 0 0 0 0 0 0 0 0 0 0 0 0 0 0 0 0 0 0 0 0 0 0 0 0 0 0 0 0 0 0 0 0 0 0 0 0 0 0 0 0 0 0 0 0 0 0 0 0 0 0 0 0 0 0 0 0 0 0 0 0 0 0 0 0 0 0 0 0 0 0 0 0 0 0 0 0 0 0 0 0 0 0 0 0 0 0 0 0 0 0 0 0 0 0 0 0 0 0 0 0 0 0 0 0 0 0 0 0 0 0 0 0 0 0 0 0 0 0 0 0 0 0 0 0 0 0 0 0 0 0 0 0 0 0 0 0 0 0 0 0 0 0 0 0 0 0 0 0 0 0 0 0 0 0 0 0 0 0 0 0 0 0 0 0 0 0 0 0 0 0 0 0 0 0 0 0 0 0 0 0 0 0 0 0 0 0 0 0 0 0 0 0 0 0 0 0 0 0 0 0 0 0 0 0 0 0 0 0 0 0 0 0 0 0 0 0 0 0 0 0 0 0 0 0 0 0 0 0 0 0 0 0 0 0 0 0 0 0 0 0 0 0 0 0 0 0 0 0 0 0 0 0 0 0 0 0 0 0 0 0 0 0 0 0 0 0 0 0 0 0 0 0 0 0 0 0 0 0 0 0 0 0 0 0 0 0 0 0 0 0 0 0 0 0 0 0 0 0 0 0 0 0 0 0 0 0 0 0 0 0 0 0 0 0 0 0 0 0 0 0 0 0 0 0 0 0 0 0 0 0 0 0 0 0 0 0 0 0 0 0 0 0 0 0 0 0 0 0 0 0 0 0 0 0 0 0 0 0 0 0 0 0 0 0 0 0 0 0 0 0 0 0 0 0 0 0 0 0 0 0 0 0 0 0 0 0 0 0 0 0 0 0 0 0 0 0 0 0 0 0 0 0 0 0 0 0 0 0 0 0 0 0 0 0 0 0 0 0 0 0 0 0 0 0 0 0 0 0 0 0 0 0 0 0 0 0 0 0 0 0 0 0 0 0 0 0 0 0 0 0 0 0 0 0 0 0 0 0 0 0 0 0 0 0 0 0 0 0 0 0 0 0 0 0 0 0 0 0 0 0 0 0 0 0 0 0 0 0 0 0 0 0 0 0 0 0 0 0 0 0 0 0 0 0 0 0 0 0 0 0 0 0 0 0 0 0 0 0 0 0 0 0 0 0 0 0 0 0 0 0 0 0 0 0 0 0 0 0 0 0 0 0 0 0 0 0 0 0 0 0 0 0 0 0 0 0 0 0 0 0 0 0 0 0 0 0 0 0 0 0 0 0 0 0 0 0 0 0 0 0 0 0 0 0 0 0 0 0 0 0 0 0 0 0 0 0 0 0 0 0 0 0 0 0 0 0 0 0 0 0 0 0 0 0 0 0 0 0 0 0 0 0 0 0 0 0 0 0 0 0 0 0 0 0 0 0 0 0 0 0 0 0 0 0 0 0 0 0 0 0 0 0 0 0 0 0 0 0 0 0 0 0 0 0 0 0 0 0 0 0 0 0 0 0 0 0 0 0 0 0 0 0 0 0 0 0 0 0 0 0 0 0 0 0 0 0 0 0 0 0 0 0 0 0 0 0 0 0 0 0 0 0 0 0 0 0 0 0 0 0 0 0 0 0 0 0 0 0 0 0 0 0 0 0 0 0 0 0 0 0 0 0 0 0 0 0 0 0 0 0 0 0 0 0 0 0 0 0 0 0 0 0 0 0 0 0 0 0 0 0 0 0 0 0 0 0 0 0 0 0 0 0 0 0 0 0 0 0 0 0 0 0 0 0 0 0 0 0 0 0 0 0 0 0 0 0 0 0 0 0 0 0 0 0 0 0 0 0 0 0 0 0 0 0 0 0 0 0 0 0 0 0 0 0 0 0 0 0 0 0 0 0 0 0 0 0 0 0 0 0 0 0 0 0 0 0 0 0 0 0 0 0 0 0 0 0 0 0 0 0 0 0 0 0 0 0 0 0 0 0 0 0 0 0 0 0 0 0 0 0 0 0 0 0 0 0 0 0 0 0 0 0 0 0 0 0 0 0 0 0 0 0 0 0 0 0 0 0 0 0 0 0 0 0 0 0 0 0 0 0 0 0 0 0 0 0 0 0 0 0 0 0 0 0 0 0 0 0 0 0 0 0 0 0 0 0 0 0 0 0 0 0 0 0 0 0 0 0 0 0 0 0 0 0 0 0 0 0 0 0 0 0 0 0 0 0 0 0 0 0 0 0 0 0 0 0 0 0 0 0 0 0 0 0 0 0 0 0 0 0 0 0 0 0 0 0 0 0 0 0 0 0 0 0 0 0 0 0 0 0 0 0 0 0 0 0 0 0 0 0 0 0 0 0 0 0 0 0 0 0 0 0 0 0 0 0 0 0 0 0 0 0 0 0 0 0 0 0 0 0 0 0 0 0 0 0 0 0 0 0 0 0 0 0 0 0 0 0 0 0 0 0 0 0 0 0 0 0 0 0 0 0 0 0 0 0 0 0 0 0 0 0 0 0 0 0 0 0 0 0 0 0 0 0 0 0 0 0 0 0 0 0 0 0 0 0 0 0 0 0 0 0 0 0 0 0 0 0 0 0 0 0 0 0 0 0 0 0 0 0 0 0 0 0 0 0 0 0 0 0 0 0 0 0 0 0 0 0 0 0 0 0 0 0 0 0 0 0 0 0 0 0 0 0 0 0 0 0 0 0 0 0 0 0 0 0 0 0 0 0 0 0 0 0 0 0 0 0 0 0 0 0 0 0 0 0 0 0 0 0 0 0 0 0 0 0 0 0 0 0 0 0 0 0 0 0 0 0 0 0 0 0 0 0 0 0 0 0 0 0 0 0 0 0 0 0 0 0 0 0 0 0 0 0 0 0 0 0 0 0 0 0 0 0 0 0 0 0 0 0 0 0 0 0 0 0 0 0 0 0 0 0 0 0 0 0 0 0 0 0 0 0 0 0 0 0 0 0 0 0 0 0 0 0 0 0 0 0 0 0 0 0 0 0 0 0 0 0 0 0 0 0 0 0 0 0 0 0 0 0 0 0 0 0 0 0 0 0 0 0 0 0 0 0 0 0 0 0 0 0 0 0 0 0 0 0 0 0 0 0 0 0 0 0 0 0 0 0 0 0 0 0 0 0 0 0 0 0 0 0 0 0 0 0 0 0 0 0 0 0 0 0 0 0 0 0 0 0 0 0 0 0 0 0 0 0 0 0 0 0 0 0 0 0 0 0 0 0 0 0 0 0 0 0 0 0 0 0 0 0 0 0 0 0 0 0 0 0 0 0 0 0 0 0 0 0 0 0 0 0 0 0 0 0 0 0 0 0 0 0 0 0 0 0 0 0 0 0 0 0 0 0 0 0 0 0 0 0 0 0 0 0 0 0 0 0 0 0 0 0 0 0 0 0 0 0 0 0 0 0 0 0 0 0 0 0 0 0 0 0 0 0 0 0 0 0 0 0 0 0 0 0 0 0 0 0 0 0 0 0 0 0 0 0 0 0 0 0 0 0 0 0 0 0 0 0 0 0 0 0 0 0 0 0 0 0 0 0 0 0 0 0 0 0 0 0 0 0 0 0 0 0 0 0 0 0 0 0 0 0 0 0 0 0 0 0 0 0 0 0 0 0 0 0 0 0 0 0 0 0 0 0 0 0 0 0 0 0 0 0 0 0 0 0 0 0 0 0 0 0 0 0 0 0 0 0 0 0 0 0 0 0 0 0 0 0 0 0 0 0 0 0 0 0 0 0 0 0 0 0 0 0 0 0 0 0 0 0 0 0 0 0 0 0 0 0 0 0 0 0 0 0 0 0 0 0 0 0 0 0 0 0 0 0 0 0 0 0 0 0 0 0 0 0 0 0 0 0 0 0 0 0 0 0 0 0 0 0 0 0 0 0 0 0 0 0 0 0 0 0 0 0 0 0 0 0 0 0 0 0 0 0 0 0 0 0 0 0 0 0 0 0 0 0 0 0 0 0 0 0 0 0 0 0 0 0 0 0 0 0 0 0 0 0 0 0 0 0 0 0 0 0 0 0 0 0 0 0 0 0 0 0 0 0 0 0 0 0 0 0 0 0 0 0 0 0 0 0 0 0 0 0 0 0 0 0 0 0 0 0 0 0 0 0 0 0 0 0 0 0 0 0 0 0 0 0 0 0 0 0 0 0 0 0 0 0 0 0 0 0 0 0 0 0 0 0 0 0 0 0 0 0 0 0 0 0 0 0 0 0 0 0 0 0 0 0 0 0 0 0 0 0 0 0 0 0 0 0 0 0 0 0 0 0 0 0 0 0 0 0 0 0 0 0 0 0 0 0 0 0 0 0 0 0 0 0 0 0 0 0 0 0 0 0 0 0 0 0 0 0 0 0 0 0 0 0 0 0 0 0 0 0 0 0 0 0 0 0 0 0 0 0 0 0 0 0 0 0 0 0 0 0 0 0 0 0 0 0 0 0 0 0 0 0 0 0 0 0 0 0 0 0 0 0 0 0 0 0 0 0 0 0 0 0 0 0 0 0 0 0 0 0 0 0 0 0 0 0 0 0 0 0 0 0 0 0 0 0 0 0 0 0 0 0 0 0 0 0 0 0 0 0 0 0 0 0 0 0 0 0 0 0 0 0 0 0 0 0 0 0 0 0 0 0 0 0 0 0 0 0 0 0 0 0 0 0 0 0 0 0 0 0 0 0 0 0 0 0 0 0 0 0 0 0 0 0 0 0 0 0 0 0 0 0 0 0 0 0 0 0 0 0 0 0 0 0 0 0 0 0 0 0 0 0 0 0 0 0 0 0 0 0 0 0 0 0 0 0 0 0 0 0 0 0 0 0 0 0 0 0 0 0 0 0 0 0 0 0 0 0 0 0 0 0 0 0 0 0 0 0 0 0 0 0 0 0 0 0 0 0 0 0 0 0 0 0 0 0 0 0 0 0 0 0 0 0 0 0 0 0 0 0 0 0 0 0 0 0 0 0 0 0 0 0 0 0 0 0 0 0 0 0 0 0 0 0 0 0 0 0 0 0 0 0 0 0 0 0 0 0 0 0 0 0 0 0 0 0 0 0 0 0 0 0 0 0 0 0 0 0 0 0 0 0 0 0 0 0 0 0 0 0 0 0 0 0 0 0 0 0 0 0 0 0 0 0 0 0 0 0 0 0 0 0 0 0 0 0 0 0 0 0 0 0 0 0 0 0 0 0 0 0 0 0 0 0 0 0 0 0 0 0 0 0 0 0 0 0 0 0 0 0 0 0 0 0 0 0 0 0 0 0 0 0 0 0 0 0 0 0 0 0 0 0 0 0 0 0 0 0 0 0 0 0 0 0 0 0 0 0 0 0 0 0 0 0 0 0 0 0 0 0 0 0 0 0 0 0 0 0 0 0 0 0 0 0 0 0 0 0 0 0 0 0 0 0 0 0 0 0 0 0 0 0 0 0 0 0 0 0 0 0 0 0 0 0 0 0 0 0 0 0 0 0 0 0 0 0 0 0 0 0 0 0 0 0 0 0 0 0 0 0 0 0 0 0 0 0 0 0 0 0 0 0 0 0 0 0 0 0 0 0 0 0 0 0 0 0 0 0 0 0 0 0 0 0 0 0 0 0 0 0 0 0 0 0 0 0 0 0 0 0 0 0 0 0 0 0 0 0 0 0 0 0 0 0 0 0 0 0 0 0 0 0 0 0 0 0 0 0 0 0 0 0 0 0 0 0 0 0 0 0 0 0 0 0 0 0 0 0 0 0 0 0 0 0 0 0 0 0 0 0 0 0 0 0 0 0 0 0 0 0 0 0 0 0 0 0 0 0 0 0 0 0 0 0 0 0 0 0 0 0 0 0 0 0 0 0 0 0 0 0 0 0 0 0 0 0 0 0 0 0 0 0 0 0 0 0 0 0 0 0 0 0 0 0 0 0 0 0 0 0 0 0 0 0 0 0 0 0 0 0 0 0 0 0 0 0 0 0 0 0 0 0 0 0 0 0 0 0 0 0 0 0 0 0 0 0 0 0 0 0 0 0 0 0 0 0 0 0 0 0 0 0 0 0 0 0 0 0 0 0 0 0 0 0 0 0 0 0 0 0 0 0 0 0 0 0 0 0 0 0 0 0 0 0 0 0 0 0 0 0 0 0 0 0 0 0 0 0 0 0 0 0 0 0 0 0 0 0 0 0 0 0 0 0 0 0 0 0 0 0 0 0 0 0 0 0 0 0 0 0 0 0 0 0 0 0 0 0 0 0 0 0 0 0 0 0 0 0 0 0 0 0 0 0 0 0 0 0 0 0 0 0 0 0 0 0 0 0 0 0 0 0 0 0 0 0 0 0 0 0 0 0 0 0 0 0 0 0 0 0 0 0 0 0 0 0 0 0 0 0 0 0 0 0 0 0 0 0 0 0 0 0 0 0 0 0 0 0 0 0 0 0 0 0 0 0 0 0 0 0 0 0 0 0 0 0 0 0 0 0 0 0 0 0 0 0 0 0 0 0 0 0 0 0 0 0 0 0 0 0 0 0 0 0 0 0 0 0 0 0 0 0 0 0 0 0 0 0 0 0 0 0 0 0 0 0 0 0 0 0 0 0 0 0 0 0 0 0 0 0 0 0 0 0 0 0 0 0 0 0 0 0 0 0 0 0 0 0 0 0 0 0 0 0 0 0 0 0 0 0 0 0 0 0 0 0 0 0 0 0 0 0 0 0 0 0 0 0 0 0 0 0 0 0 0 0 0 0 0 0 0 0 0 0 0 0 0 0 0 0 0 0 0 0 0 0 0 0 0 0 0 0 0 0 0 0 0 0 0 0 0 0 0 0 0 0 0 0 0 0 0 0 0 0 0 0 0 0 0 0 0 0 0 0 0 0 0 0 0 0 0 0 0 0 0 0 0 0 0 0 0 0 0 0 0 0 0 0 0 0 0 0 0 0 0 0 0 0 0 0 0 0 0 0 0 0 0 0 0 0 0 0 0 0 0 0 0 0 0 0 0 0 0 0 0 0 0 0 0 0 0 0 0 0 0 0 0 0 0 0 0 0 0 0 0 0 0 0 0 0 0 0 0 0 0 0 0 0 0 0 0 0 0 0 0 0 0 0 0 0 0 0 0 0 0 0 0 0 0 0 0 0 0 0 0 0 0 0 0 0 0 0 0 0 0 0 0 0 0 0 0 0 0 0 0 0 0 0 0 0 0 0 0 0 0 0 0 0 0 0 0 0 0 0 0 0 0 0 0 0 0 0 0 0 0 0 0 0 0 0 0 0 0 0 0 0 0 0 0 0 0 0 0 0 0 0 0 0 0 0 0 0 0 0 0 0 0 0 0 0 0 0 0 0 0 0 0 0 0 0 0 0 0 0 0 0 0 0 0 0 0 0 0 0 0 0 0 0 0 0 0 0 0 0 0 0 0 0 0 0 0 0 0 0 0 0 0 0 0 0 0 0 0 0 0 0 0 0 0 0 0 0 0 0 0 0 0 0 0 0 0 0 0 0 0 0 0 0 0 0 0 0 0 0 0 0 0 0 0 0 0 0 0 0 0 0 0 0 0 0 0 0 0 0 0 0 0 0 0 0 0 0 0 0 0 0 0 0 0 0 0 0 0 0 0 0 0 0 0 0 0 0 0 0 0 0 0 0 0 0 0 0 0 0 0 0 0 0 0 0 0 0 0 0 0 0 0 0 0 0 0 0 0 0 0 0 0 0 0 0 0 0 0 0 0 0 0 0 0 0 0 0 0 0 0 0 0 0 0 0 0 0 0 0 0 0 0 0 0 0 0 0 0 0 0 0 0 0 0 0 0 0 0 0 0 0 0 0 0 0 0 0 0 0 0 0 0 0 0 0 0 0 0 0 0 0 0 0 0 0 0 0 0 0 0 0 0 0 0 0 0 0 0 0 0 0 0 0 0 0 0 0 0 0 0 0 0 0 0 0 0 0 0 0 0 0 0 0 0 0 0 0 0 0 0 0 0 0 0 0 0 0 0 0 0 0 0 0 0 0 0 0 0 0 0 0 0 0 0 0 0 0 0 0 0 0 0 0 0 0 0 0 0 0 0 0 0 0 0 0 0 0 0 0 0 0 0 0 0 0 0 0 0 0 0 0 0 0 0 0 0 0 0 0 0 0 0 0 0 0 0 0 0 0 0 0 0 0 0 0 0 0 0 0 0 0 0 0 0 0 0 0 0 0 0 0 0 0 0 0 0 0 0 0 0 0 0 0 0 0 0 0 0 0 0 0 0 0 0 0 0 0 0 0 0 0 0 0 0 0 0 0 0 0 0 0 0 0 0 0 0 0 0 0 0 0 0 0 0 0 0 0 0 0 0 0 0 0 0 0 0 0 0 0 0 0 0 0 0 0 0 0 0 0 0 0 0 0 0 0 0 0 0 0 0 0 0 0 0 0 0 0 0 0 0 0 0 0 0 0 0 0 0 0 0 0 0 0 0 0 0 0 0 0 0 0 0 0 0 0 0 0 0 0 0 0 0 0 0 0 0 0 0 0 0 0 0 0 0 0 0 0 0 0 0 0 0 0 0 0 0 0 0 0 0 0 0 0 0 0 0 0 0 0 0 0 0 0 0 0 0 0 0 0 0 0 0 0 0 0 0 0 0 0 0 0 0 0 0 0 0 0 0 0 0 0 0 0 0 0 0 0 0 0 0 0 0 0 0 0 0 0 0 0 0 0 0 0 0 0 0 0 0 0 0 0 0 0 0 0 0 0 0 0 0 0 0 0 0 0 0 0 0 0 0 0 0 0 0 0 0 0 0 0 0 0 0 0 0 0 0 0 0 0 0 0 0 0 0 0 0 0 0 0 0 0 0 0 0 0 0 0 0 0 0 0 0 0 0 0 0 0 0 0 0 0 0 0 0 0 0 0 0 0 0 0 0 0 0 0 0 0 0 0 0 0 0 0 0 0 0 0 0 0 0 0 0 0 0 0 0 0 0 0 0 0 0 0 0 0 0 0 0 0 0 0 0 0 0 0 0 0 0 0 0 0 0 0 0 0 0 0 0 0 0 0 0 0 0 0 0 0 0 0 0 0 0 0 0 0 0 0 0 0 0 0 0 0 0 0 0 0 0 0 0 0 0 0 0 0 0 0 0 0 0 0 0 0 0 0 0 0 0 0 0 0 0 0 0 0 0 0 0 0 0 0 0 0 0 0 0 0 0 0 0 0 0 0 0 0 0 0 0 0 0 0 0 0 0 0 0 0 0 0 0 0 0 0 0 0 0 0 0 0 0 0 0 0 0 0 0 0 0 0 0 0 0 0 0 0 0 0 0 0 0 0 0 0 0 0 0 0 0 0 0 0 0 0 0 0 0 0 0 0 0 0 0 0 0 0 0 0 0 0 0 0 0 0 0 0 0 0 0 0 0 0 0 0 0 0 0 0 0 0 0 0 0 0 0 0 0 0 0 0 0 0 0 0 0 0 0 0 0 0 0 0 0 0 0 0 0 0 0 0 0 0 0 0 0 0 0 0 0 0 0 0 0 0 0 0 0 0 0 0 0 0 0 0 0 0 0 0 0 0 0 0 0 0 0 0 0 0 0 0 0 0 0 0 0 0 0 0 0 0 0 0 0 0 0 0 0 0 0 0 0 0 0 0 0 0 0 0 0 0 0 0 0 0 0 0 0 0 0 0 0 0 0 0 0 0 0 0 0 0 0 0 0 0 0 0 0 0 0 0 0 0 0 0 0 0 0 0 0 0 0 0 0 0 0 0 0 0 0 0 0 0 0 0 0 0 0 0 0 0 0 0 0 0 0 0 0 0 0 0 0 0 0 0 0 0 0 0 0 0 0 0 0 0 0 0 0 0 0 0 0 0 0 0 0 0 0 0 0 0 0 0 0 0 0 0 0 0 0 0 0 0 0 0 0 0 0 0 0 0 0 0 0 0 0 0 0 0 0 0 0 0 0 0 0 0 0 0 0 0 0 0 0 0 0 0 0 0 0 0 0 0 0 0 0 0 0 0 0 0 0 0 0 0 0 0 0 0 0 0 0 0 0 0 0 0 0 0 0 0 0 0 0 0 0 0 0 0 0 0 0 0 0 0 0 0 0 0 0 0 0 0 0 0 0 0 0 0 0 0 0 0 0 0 0 0 0 0 0 0 0 0 0 0 0 0 0 0 0 0 0 0 0 0 0 0 0 0 0 0 0 0 0 0 0 0 0 0 0 0 0 0 0 0 0 0 0 0 0 0 0 0 0 0 0 0 0 0 0 0 0 0 0 0 0 0 0 0 0 0 0 0 0 0 0 0 0 0 0 0 0 0 0 0 0 0 0 0 0 0 0 0 0 0 0 0 0 0 0 0 0 0 0 0 0 0 0 0 0 0 0 0 0 0 0 0 0 0 0 0 0 0 0 0 0 0 0 0 0 0 0 0 0 0 0 0 0 0 0 0 0 0 0 0 0 0 0 0 0 0 0 0 0 0 0 0 0 0 0 0 0 0 0 0 0 0 0 0 0 0 0 0 0 0 0 0 0 0 0 0 0 0 0 0 0 0 0 0 0 0 0 0 0 0 0 0 0 0 0 0 0 0 0 0 0 0 0 0 0 0 0 0 0 0 0 0 0 0 0 0 0 0 0 0 0 0 0 0 0 0 0 0 0 0 0 0 0 0 0 0 0 0 0 0 0 0 0 0 0 0 0 0 0 0 0 0 0 0 0 0 0 0 0 0 0 0 0 0 0 0 0 0 0 0 0 0 0 0 0 0 0 0 0 0 0 0 0 0 0 0 0 0 0 0 0 0 0 0 0 0 0 0 0 0 0 0 0 0 0 0 0 0 0 0 0 0 0 0 0 0 0 0 0 0 0 0 0 0 0 0 0 0 0 0 0 0 0 0 0 0 0 0 0 0 0 0 0 0 0 0 0 0 0 0 0 0 0 0 0 0 0 0 0 0 0 0 0 0 0 0 0 0 0 0 0 0 0 0 0 0 0 0 0 0 0 0 0 0 0 0 0 0 0 0 0 0 0 0 0 0 0 0 0 0 0 0 0 0 0 0 0 0 0 0 0 0 0 0 0 0 0 0 0 0 0 0 0 0 0 0 0 0 0 0 0 0 0 0 0 0 0 0 0 0 0 0 0 0 0 0 0 0 0 0 0 0 0 0 0 0 0 0 0 0 0 0 0 0 0 0 0 0 0 0 0 0 0 0 0 0 0 0 0 0 0 0 0 0 0 0 0 0 0 0 0 0 0 0 0 0 0 0 0 0 0 0 0 0 0 0 0 0 0 0 0 0 0 0 0 0 0 0 0 0 0 0 0 0 0 0 0 0 0 0 0 0 0 0 0 0 0 0 0 0 0 0 0 0 0 0 0 0 0 0 0 0 0 0 0 0 0 0 0 0 0 0 0 0 0 0 0 0 0 0 0 0 0 0 0 0 0 0 0 0 0 0 0 0 0 0 0 0 0 0 0 0 0 0 0 0 0 0 0 0 0 0 0 0 0 0 0 0 0 0 0 0 0 0 0 0 0 0 0 0 0 0 0 0 0 0 0 0 0 0 0 0 0 0 0 0 0 0 0 0 0 0 0 0 0 0 0 0 0 0 0 0 0 0 0 0 0 0 0 0 0 0 0 0 0 0 0 0 0 0 0 0 0 0 0 0 0 0 0 0 0 0 0 0 0 0 0 0 0 0 0 0 0 0 0 0 0 0 0 0 0 0 0 0 0 0 0 0 0 0 0 0 0 0 0 0 0 0 0 0 0 0 0 0 0 0 0 0 0 0 0 0 0 0 0 0 0 0 0 0 0 0 0 0 0 0 0 0 0 0 0 0 0 0 0 0 0 0 0 0 0 0 0 0 0 0 0 0 0 0 0 0 0 0 0 0 0 0 0 0 0 0 0 0 0 0 0 0 0 0 0 0 0 0 0 0 0 0 0 0 0 0 0 0 0 0 0 0 0 0 0 0 0 0 0 0 0 0 0 0 0 0 0 0 0 0 0 0 0 0 0 0 0 0 0 0 0 0 0 0 0 0 0 0 0 0 0 0 0 0 0 0 0 0 0 0 0 0 0 0 0 0 0 0 0 0 0 0 0 0 0 0 0 0 0 0 0 0 0 0 0 0 0 0 0 0 0 0 0 0 0 0 0 0 0 0 0 0 0 0 0 0 0 0 0 0 0 0 0 0 0 0 0 0 0 0 0 0 0 0 0 0 0 0 0 0 0 0 0 0 0 0 0 0 0 0 0 0 0 0 0 0 0 0 0 0 0 0 0 0 0 0 0 0 0 0 0 0 0 0 0 0 0 0 0 0 0 0 0 0 0 0 0 0 0 0 0 0 0 0 0 0 0 0 0 0 0 0 0 0 0 0 0 0 0 0 0 0 0 0 0 0 0 0 0 0 0 0 0 0 0 0 0 0 0 0 0 0 0 0 0 0 0 0 0 0 0 0 0 0 0 0 0 0 0 0 0 0 0 0 0 0 0 0 0 0 0 0 0 0 0 0 0 0 0 0 0 0 0 0 0 0 0 0 0 0 0 0 0 0 0 0 0 0 0 0 0 0 0 0 0 0 0 0 0 0 0 0 0 0 0 0 0 0 0 0 0 0 0 0 0 0 0 0 0 0 0 0 0 0 0 0 0 0 0 0 0 0 0 0 0 0 0 0 0 0 0 0 0 0 0 0 0 0 0 0 0 0 0 0 0 0 0 0 0 0 0 0 0 0 0 0 0 0 0 0 0 0 0 0 0 0 0 0 0 0 0 0 0 0 0 0 0 0 0 0 0 0 0 0 0 0 0 0 0 0 0 0 0 0 0 0 0 0 0 0 0 0 0 0 0 0 0 0 0 0 0 0 0 0 0 0 0 0 0 0 0 0 0 0 0 0 0 0 0 0 0 0 0 0 0 0 0 0 0 0 0 0 0 0 0 0 0 0 0 0 0 0 0 0 0 0 0 0 0 0 0 0 0 0 0 0 0 0 0 0 0 0 0 0 0 0 0 0 0 0 0 0 0 0 0 0 0 0 0 0 0 0 0 0 0 0 0 0 0 0 0 0 0 0 0 0 0 0 0 0 0 0 0 0 0 0 0 0 0 0 0 0 0 0 0 0 0 0 0 0 0 0 0 0 0 0 0 0 0 0 0 0 0 0 0 0 0 0 0 0 0 0 0 0 0 0 0 0 0 0 0 0 0 0 0 0 0 0 0 0 0 0 0 0 0 0 0 0 0 0 0 0 0 0 0 0 0 0 0 0 0 0 0 0 0 0 0 0 0 0 0 0 0 0 0 0 0 0 0 0 0 0 0 0 0 0 0 0 0 0 0 0 0 0 0 0 0 0 0 0 0 0 0 0 0 0 0 0 0 0 0 0 0 0 0 0 0 0 0 0 0 0 0 0 0 0 0 0 0 0 0 0 0 0 0 0 0 0 0 0 0 0 0 0 0 0 0 0 0 0 0 0 0 0 0 0 0 0 0 0 0 0 0 0 0 0 0 0 0 0 0 0 0 0 0 0 0 0 0 0 0 0 0 0 0 0 0 0 0 0 0 0 0 0 0 0 0 0 0 0 0 0 0 0 0 0 0 0 0 0 0 0 0 0 0 0 0 0 0 0 0 0 0 0 0 0 0 0 0 0 0 0 0 0 0 0 0 0 0 0 0 0 0 0 0 0 0 0 0 0 0 0 0 0 0 0 0 0 0 0 0 0 0 0 0 0 0 0 0 0 0 0 0 0 0 0 0 0 0 0 0 0 0 0 0 0 0 0 0 0 0 0 0 0 0 0 0 0 0 0 0 0 0 0 0 0 0 0 0 0 0 0 0 0 0 0 0 0 0 0 0 0 0 0 0 0 0 0 0 0 0 0 0 0 0 0 0 0 0 0 0 0 0 0 0 0 0 0 0 0 0 0 0 0 0 0 0 0 0 0 0 0 0 0 0 0 0 0 0 0 0 0 0 0 0 0 0 0 0 0 0 0 0 0 0 0 0 0 0 0 0 0 0 0 0 0 0 0 0 0 0 0 0 0 0 0 0 0 0 0 0 0 0 0 0 0 0 0 0 0 0 0 0 0 0 0 0 0 0 0 0 0 0 0 0 0 0 0 0 0 0 0 0 0 0 0 0 0 0 0 0 0 0 0 0 0 0 0 0 0 0 0 0 0 0 0 0 0 0 0 0 0 0 0 0 0 0 0 0 0 0 0 0 0 0 0 0 0 0 0 0 0 0 0 0 0 0 0 0 0 0 0 0 0 0 0 0 0 0 0 0 0 0 0 0 0 0 0 0 0 0 0 0 0 0 0 0 0 0 0 0 0 0 0 0 0 0 0 0 0 0 0 0 0 0 0 0 0 0 0 0 0 0 0 0 0 0 0 0 0 0 0 0 0 0 0 0 0 0 0 0 0 0 0 0 0 0 0 0 0 0 0 0 0 0 0 0 0 0 0 0 0 0 0 0 0 0 0 0 0 0 0 0 0 0 0 0 0 0 0 0 0 0 0 0 0 0 0 0 0 0 0 0 0 0 0 0 0 0 0 0 0 0 0 0 0 0 0 0 0 0 0 0 0 0 0 0 0 0 0 0 0 0 0 0 0 0 0 0 0 0 0 0 0 0 0 0 0 0 0 0 0 0 0 0 0 0 0 0 0 0 0 0 0 0 0 0 0 0 0 0 0 0 0 0 0 0 0 0 0 0 0 0 0 0 0 0 0 0 0 0 0 0 0 0 0 0 0 0 0 0 0 0 0 0 0 0 0 0 0 0 0 0 0 0 0 0 0 0 0 0 0 0 0 0 0 0 0 0 0 0 0 0 0 0 0 0 0 0 0 0 0 0 0 0 0 0 0 0 0 0 0 0 0 0 0 0 0 0 0 0 0 0 0 0 0 0 0 0 0 0 0 0 0 0 0 0 0 0 0 0 0 0 0 0 0 0 0 0 0 0 0 0 0 0 0 0 0 0 0 0 0 0 0 0 0 0 0 0 0 0 0 0 0 0 0 0 0 0 0 0 0 0 0 0 0 0 0 0 0 0 0 0 0 0 0 0 0 0 0 0 0 0 0 0 0 0 0 0 0 0 0 0 0 0 0 0 0 0 0 0 0 0 0 0 0 0 0 0 0 0 0 0 0 0 0 0 0 0 0 0 0 0 0 0 0 0 0 0 0 0 0 0 0 0 0 0 0 0 0 0 0 0 0 0 0 0 0 0 0 0 0 0 0 0 0 0 0 0 0 0 0 0 0 0 0 0 0 0 0 0 0 0 0 0 0 0 0 0 0 0 0 0 0 0 0 0 0 0 0 0 0 0 0 0 0 0 0 0 0 0 0 0 0 0 0 0 0 0 0 0 0 0 0 0 0 0 0 0 0 0 0 0 0 0 0 0 0 0 0 0 0 0 0 0 0 0 0 0 0 0 0 0 0 0 0 0 0 0 0 0 0 0 0 0 0 0 0 0 0 0 0 0 0 0 0 0 0 0 0 0 0 0 0 0 0 0 0 0 0 0 0 0 0 0 0 0 0 0 0 0 0 0 0 0 0 0 0 0 0 0 0 0 0 0 0 0 0 0 0 0 0 0 0 0 0 0 0 0 0 0 0 0 0 0 0 0 0 0 0 0 0 0 0 0 0 0 0 0 0 0 0 0 0 0 0 0 0 0 0 0 0 0 0 0 0 0 0 0 0 0 0 0 0 0 0 0 0 0 0 0 0 0 0 0 0 0 0 0 0 0 0 0 0 0 0 0 0 0 0 0 0 0 0 0 0 0 0 0 0 0 0 0 0 0 0 0 0 0 0 0 0 0 0 0 0 0 0 0 0 0 0 0 0 0 0 0 0 0 0 0 0 0 0 0 0 0 0 0 0 0 0 0 0 0 0 0 0 0 0 0 0 0 0 0 0 0 0 0 0 0 0 0 0 0 0 0 0 0 0 0 0 0 0 0 0 0 0 0 0 0 0 0 0 0 0 0 0 0 0 0 0 0 0 0 0 0 0 0 0 0 0 0 0 0 0 0 0 0 0 0 0 0 0 0 0 0 0 0 0 0 0 0 0 0 0 0 0 0 0 0 0 0 0 0 0 0 0 0 0 0 0 0 0 0 0 0 0 0 0 0 0 0 0 0 0 0 0 0 0 0 0 0 0 0 0 0 0 0 0 0 0 0 0 0 0 0 0 0 0 0 0 0 0 0 0 0 0 0 0 0 0 0 0 0 0 0 0 0 0 0 0 0 0 0 0 0 0 0 0 0 0 0 0 0 0 0 0 0 0 0 0 0 0 0 0 0 0 0 0 0 0 0 0 0 0 0 0 0 0 0 0 0 0 0 0 0 0 0 0 0 0 0 0 0 0 0 0 0 0 0 0 0 0 0 0 0 0 0 0 0 0 0 0 0 0 0 0 0 0 0 0 0 0 0 0 0 0 0 0 0 0 0 0 0 0 0 0 0 0 0 0 0 0 0 0 0 0 0 0 0 0 0 0 0 0 0 0 0 0 0 0 0 0 0 0 0 0 0 0 0 0 0 0 0 0 0 0 0 0 0 0 0 0 0 0 0 0 0 0 0 0 0 0 0 0 0 0 0 0 0 0 0 0 0 0 0 0 0 0 0 0 0 0 0 0 0 0 0 0 0 0 0 0 0 0 0 0 0 0 0 0 0 0 0 0 0 0 0 0 0 0 0 0 0 0 0 0 0 0 0 0 0 0 0 0 0 0 0 0 0 0 0 0 0 0 0 0 0 0 0 0 0 0 0 0 0 0 0 0 0 0 0 0 0 0 0 0 0 0 0 0 0 0 0 0 0 0 0 0 0 0 0 0 0 0 0 0 0 0 0 0 0 0 0 0 0 0 0 0 0 0 0 0 0 0 0 0 0 0 0 0 0 0 0 0 0 0 0 0 0 0 0 0 0 0 0 0 0 0 0 0 0 0 0 0 0 0 0 0 0 0 0 0 0 0 0 0 0 0 0 0 0 0 0 0 0 0 0 0 0 0 0 0 0 0 0 0 0 0 0 0 0 0 0 0 0 0 0 0 0 0 0 0 0 0 0 0 0 0 0 0 0 0 0 0 0 0 0 0 0 0 0 0 0 0 0 0 0 0 0 0 0 0 0 0 0 0 0 0 0 0 0 0 0 0 0 0 0 0 0 0 0 0 0 0 0 0 0 0 0 0 0 0 0 0 0 0 0 0 0 0 0 0 0 0 0 0 0 0 0 0 0 0 0 0 0 0 0 0 0 0 0 0 0 0 0 0 0 0 0 0 0 0 0 0 0 0 0 0 0 0 0 0 0 0 0 0 0 0 0 0 0 0 0 0 0 0 0 0 0 0 0 0 0 0 0 0 0 0 0 0 0 0 0 0 0 0 0 0 0 0 0 0 0 0 0 0 0 0 0 0 0 0 0 0 0 0 0 0 0 0 0 0 0 0 0 0 0 0 0 0 0 0 0 0 0 0 0 0 0 0 0 0 0 0 0 0 0 0 0 0 0 0 0 0 0 0 0 0 0 0 0 0 0 0 0 0 0 0 0 0 0 0 0 0 0 0 0 0 0 0 0 0 0 0 0 0 0 0 0 0 0 0 0 0 0 0 0 0 0 0 0 0 0 0 0 0 0 0 0 0 0 0 0 0 0 0 0 0 0 0 0 0 0 0 0 0 0 0 0 0 0 0 0 0 0 0 0 0 0 0 0 0 0 0 0 0 0 0 0 0 0 0 0 0 0 0 0 0 0 0 0 0 0 0 0 0 0 0 0 0 0 0 0 0 0 0 0 0 0 0 0 0 0 0 0 0 0 0 0 0 0 0 0 0 0 0 0 0 0 0 0 0 0 0 0 0 0 0 0 0 0 0 0 0 0 0 0 0 0 0 0 0 0 0 0 0 0 0 0 0 0 0 0 0 0 0 0 0 0 0 0 0 0 0 0 0 0 0 0 0 0 0 0 0 0 0 0 0 0 0 0 0 0 0 0 0 0 0 0 0 0 0 0 0 0 0 0 0 0 0 0 0 0 0 0 0 0 0 0 0 0 0 0 0 0 0 0 0 0 0 0 0 0 0 0 0 0 0 0 0 0 0 0 0 0 0 0 0 0 0 0 0 0 0 0 0 0 0 0 0 0 0 0 0 0 0 0 0 0 0 0 0 0 0 0 0 0 0 0 0 0 0 0 0 0 0 0 0 0 0 0 0 0 0 0 0 0 0 0 0 0 0 0 0 0 0 0 0 0 0 0 0 0 0 0 0 0 0 0 0 0 0 0 0 0 0 0 0 0 0 0 0 0 0 0 0 0 0 0 0 0 0 0 0 0 0 0 0 0 0 0 0 0 0 0 0 0 0 0 0 0 0 0 0 0 0 0 0 0 0 0 0 0 0 0 0 0 0 0 0 0 0 0 0 0 0 0 0 0 0 0 0 0 0 0 0 0 0 0 0 0 0 0 0 0 0 0 0 0 0 0 0 0 0 0 0 0 0 0 0 0 0 0 0 0 0 0 0 0 0 0 0 0 0 0 0 0 0 0 0 0 0 0 0 0 0 0 0 0 0 0 0 0 0 0 0 0 0 0 0 0 0 0 0 0 0 0 0 0 0 0 0 0 0 0 0 0 0 0 0 0 0 0 0 0 0 0 0 0 0 0 0 0 0 0 0 0 0 0 0 0 0 0 0 0 0 0 0 0 0 0 0 0 0 0 0 0 0 0 0 0 0 0 0 0 0 0 0 0 0 0 0 0 0 0 0 0 0 0 0 0 0 0 0 0 0 0 0 0 0 0 0 0 0 0 0 0 0 0 0 0 0 0 0 0 0 0 0 0 0 0 0 0 0 0 0 0 0 0 0 0 0 0 0 0 0 0 0 0 0 0 0 0 0 0 0 0 0 0 0 0 0 0 0 0 0 0 0 0 0 0 0 0 0 0 0 0 0 0 0 0 0 0 0 0 0 0 0 0 0 0 0 0 0 0 0 0 0 0 0 0 0 0 0 0 0 0 0 0 0 0 0 0 0 0 0 0 0 0 0 0 0 0 0 0 0 0 0 0 0 0 0 0 0 0 0 0 0 0 0 0 0 0 0 0 0 0 0 0 0 0 0 0 0 0 0 0 0 0 0 0 0 0 0 0 0 0 0 0 0 0 0 0 0 0 0 0 0 0 0 0 0 0 0 0 0 0 0 0 0 0 0 0 0 0 0 0 0 0 0 0 0 0 0 0 0 0 0 0 0 0 0 0 0 0 0 0 0 0 0 0 0 0 0 0 0 0 0 0 0 0 0 0 0 0 0 0 0 0 0 0 0 0 0 0 0 0 0 0 0 0 0 0 0 0 0 0 0 0 0 0 0 0 0 0 0 0 0 0 0 0 0 0 0 0 0 0 0 0 0 0 0 0 0 0 0 0 0 0 0 0 0 0 0 0 0 0 0 0 0 0 0 0 0 0 0 0 0 0 0 0 0 0 0 0 0 0 0 0 0 0 0 0 0 0 0 0 0 0 0 0 0 0 0 0 0 0 0 0 0 0 0 0 0 0 0 0 0 0 0 0 0 0 0 0 0 0 0 0 0 0 0 0 0 0 0 0 0 0 0 0 0 0 0 0 0 0 0 0 0 0 0 0 0 0 0 0 0 0 0 0 0 0 0 0 0 0 0 0 0 0 0 0 0 0 0 0 0 0 0 0 0 0 0 0 0 0 0 0 0 0 0 0 0 0 0 0 0 0 0 0 0 0 0 0 0 0 0 0 0 0 0 0 0 0 0 0 0 0 0 0 0 0 0 0 0 0 0 0 0 0 0 0 0 0 0 0 0 0 0 0 0 0 0 0 0 0 0 0 0 0 0 0 0 0 0 0 0 0 0 0 0 0 0 0 0 0 0 0 0 0 0 0 0 0 0 0 0 0 0 0 0 0 0 0 0 0 0 0 0 0 0 0 0 0 0 0 0 0 0 0 0 0 0 0 0 0 0 0 0 0 0 0 0 0 0 0 0 0 0 0 0 0 0 0 0 0 0 0 0 0 0 0 0 0 0 0 0 0 0 0 0 0 0 0 0 0 0 0 0 0 0 0 0 0 0 0 0 0 0 0 0 0 0 0 0 0 0 0 0 0 0 0 0 0 0 0 0 0 0 0 0 0 0 0 0 0 0 0 0 0 0 0 0 0 0 0 0 0 0 0 0 0 0 0 0 0 0 0 0 0 0 0 0 0 0 0 0 0 0 0 0 0 0 0 0 0 0 0 0 0 0 0 0 0 0 0 0 0 0 0 0 0 0 0 0 0 0 0 0 0 0 0 0 0 0 0 0 0 0 0 0 0 0 0 0 0 0 0 0 0 0 0 0 0 0 0 0 0 0 0 0 0 0 0 0 0 0 0 0 0 0 0 0 0 0 0 0 0 0 0 0 0 0 0 0 0 0 0 0 0 0 0 0 0 0 0 0 0 0 0 0 0 0 0 0 0 0 0 0 0 0 0 0 0 0 0 0 0 0 0 0 0 0 0 0 0 0 0 0 0 0 0 0 0 0 0 0 0 0 0 0 0 0 0 0 0 0 0 0 0 0 0 0 0 0 0 0 0 0 0 0 0 0 0 0 0 0 0 0 0 0 0 0 0 0 0 0 0 0 0 0 0 0 0 0 0 0 0 0 0 0 0 0 0 0 0 0 0 0 0 0 0 0 0 0 0 0 0 0 0 0 0 0 0 0 0 0 0 0 0 0 0 0 0 0 0 0 0 0 0 0 0 0 0 0 0 0 0 0 0 0 0 0 0 0 0 0 0 0 0 0 0 0 0 0 0 0 0 0 0 0 0 0 0 0 0 0 0 0 0 0 0 0 0 0 0 0 0 0 0 0 0 0 0 0 0 0 0 0 0 0 0 0 0 0 0 0 0 0 0 0 0 0 0 0 0 0 0 0 0 0 0 0 0 0 0 0 0 0 0 0 0 0 0 0 0 0 0 0 0 0 0 0 0 0 0 0 0 0 0 0 0 0 0 0 0 0 0 0 0 0 0 0 0 0 0 0 0 0 0 0 0 0 0 0 0 0 0 0 0 0 0 0 0 0 0 0 0 0 0 0 0 0 0 0 0 0 0 0 0 0 0 0 0 0 0 0 0 0 0 0 0 0 0 0 0 0 0 0 0 0 0 0 0 0 0 0 0 0 0 0 0 0 0 0 0 0 0 0 0 0 0 0 0 0 0 0 0 0 0 0 0 0 0 0 0 0 0 0 0 0 0 0 0 0 0 0 0 0 0 0 0 0 0 0 0 0 0 0 0 0 0 0 0 0 0 0 0 0 0 0 0 0 0 0 0 0 0 0 0 0 0 0 0 0 0 0 0 0 0 0 0 0 0 0 0 0 0 0 0 0 0 0 0 0 0 0 0 0 0 0 0 0 0 0 0 0 0 0 0 0 0 0 0 0 0 0 0 0 0 0 0 0 0 0 0 0 0 0 0 0 0 0 0 0 0 0 0 0 0 0 0 0 0 0 0 0 0 0 0 0 0 0 0 0 0 0 0 0 0 0 0 0 0 0 0 0 0 0 0 0 0 0 0 0 0 0 0 0 0 0 0 0 0 0 0 0 0 0 0 0 0 0 0 0 0 0 0 0 0 0 0 0 0 0 0 0 0 0 0 0 0 0 0 0 0 0 0 0 0 0 0 0 0 0 0 0 0 0 0 0 0 0 0 0 0 0 0 0 0 0 0 0 0 0 0 0 0 0 0 0 0 0 0 0 0 0 0 0 0 0 0 0 0 0 0 0 0 0 0 0 0 0 0 0 0 0 0 0 0 0 0 0 0 0 0 0 0 0 0 0 0 0 0 0 0 0 0 0 0 0 0 0 0 0 0 0 0 0 0 0 0 0 0 0 0 0 0 0 0 0 0 0 0 0 0 0 0 0 0 0 0 0 0 0 0 0 0 0 0 0 0 0 0 0 0 0 0 0 0 0 0 0 0 0 0 0 0 0 0 0 0 0 0 0 0 0 0 0 0 0 0 0 0 0 0 0 0 0 0 0 0 0 0 0 0 0 0 0 0 0 0 0 0 0 0 0 0 0 0 0 0 0 0 0 0 0 0 0 0 0 0 0 0 0 0 0 0 0 0 0 0 0 0 0 0 0 0 0 0 0 0 0 0 0 0 0 0 0 0 0 0 0 0 0 0 0 0 0 0 0 0 0 0 0 0 0 0 0 0 0 0 0 0 0 0 0 0 0 0 0 0 0 0 0 0 0 0 0 0 0 0 0 0 0 0 0 0 0 0 0 0 0 0 0 0 0 0 0 0 0 0 0 0 0 0 0 0 0 0 0 0 0 0 0 0 0 0 0 0 0 0 0 0 0 0 0 0 0 0 0 0 0 0 0 0 0 0 0 0 0 0 0 0 0 0 0 0 0 0 0 0 0 0 0 0 0 0 0 0 0 0 0 0 0 0 0 0 0 0 0 0 0 0 0 0 0 0 0 0 0 0 0 0 0 0 0 0 0 0 0 0 0 0 0 0 0 0 0 0 0 0 0 0 0 0 0 0 0 0 0 0 0 0 0 0 0 0 0 0 0 0 0 0 0 0 0 0 0 0 0 0 0 0 0 0 0 0 0 0 0 0 0 0 0 0 0 0 0 0 0 0 0 0 0 0 0 0 0 0 0 0 0 0 0 0 0 0 0 0 0 0 0 0 0 0 0 0 0 0 0 0 0 0 0 0 0 0 0 0 0 0 0 0 0 0 0 0 0 0 0 0 0 0 0 0 0 0 0 0 0 0 0 0 0 0 0 0 0 0 0 0 0 0 0 0 0 0 0 0 0 0 0 0 0 0 0 0 0 0 0 0 0 0 0 0 0 0 0 0 0 0 0 0 0 0 0 0 0 0 0 0 0 0 0 0 0 0 0 0 0 0 0 0 0 0 0 0 0 0 0 0 0 0 0 0 0 0 0 0 0 0 0 0 0 0 0 0 0 0 0 0 0 0 0 0 0 0 0 0 0 0 0 0 0 0 0 0 0 0 0 0 0 0 0 0 0 0 0 0 0 0 0 0 0 0 0 0 0 0 0 0 0 0 0 0 0 0 0 0 0 0 0 0 0 0 0 0 0 0 0 0 0 0 0 0 0 0 0 0 0 0 0 0 0 0 0 0 0 0 0 0 0 0 0 0 0 0 0 0 0 0 0 0 0 0 0 0 0 0 0 0 0 0 0 0 0 0 0 0 0 0 0 0 0 0 0 0 0 0 0 0 0 0 0 0 0 0 0 0 0 0 0 0 0 0 0 0 0 0 0 0 0 0 0 0 0 0 0 0 0 0 0 0 0 0 0 0 0 0 0 0 0 0 0 0 0 0 0 0 0 0 0 0 0 0 0 0 0 0 0 0 0 0 0 0 0 0 0 0 0 0 0 0 0 0 0 0 0 0 0 0 0 0 0 0 0 0 0 0 0 0 0 0 0 0 0 0 0 0 0 0 0 0 0 0 0 0 0 0 0 0 0 0 0 0 0 0 0 0 0 0 0 0 0 0 0 0 0 0 0 0 0 0 0 0 0 0 0 0 0 0 0 0 0 0 0 0 0 0 0 0 0 0 0 0 0 0 0 0 0 0 0 0 0 0 0 0 0 0 0 0 0 0 0 0 0 0 0 0 0 0 0 0 0 0 0 0 0 0 0 0 0 0 0 0 0 0 0 0 0 0 0 0 0 0 0 0 0 0 0 0 0 0 0 0 0 0 0 0 0 0 0 0 0 0 0 0 0 0 0 0 0 0 0 0 0 0 0 0 0 0 0 0 0 0 0 0 0 0 0 0 0 0 0 0 0 0 0 0 0 0 0 0 0 0 0 0 0 0 0 0 0 0 0 0 0 0 0 0 0 0 0 0 0 0 0 0 0 0 0 0 0 0 0 0 0 0 0 0 0 0 0 0 0 0 0 0 0 0 0 0 0 0 0 0 0 0 0 0 0 0 0 0 0 0 0 0 0 0 0 0 0 0 0 0 0 0 0 0 0 0 0 0 0 0 0 0 0 0 0 0 0 0 0 0 0 0 0 0 0 0 0 0 0 0 0 0 0 0 0 0 0 0 0 0 0 0 0 0 0 0 0 0 0 0 0 0 0 0 0 0 0 0 0 0 0 0 0 0 0 0 0 0 0 0 0 0 0 0 0 0 0 0 0 0 0 0 0 0 0 0 0 0 0 0 0 0 0 0 0 0 0 0 0 0 0 0 0 0 0 0 0 0 0 0 0 0 0 0 0 0 0 0 0 0 0 0 0 0 0 0 0 0 0 0 0 0 0 0 0 0 0 0 0 0 0 0 0 0 0 0 0 0 0 0 0 0 0 0 0 0 0 0 0 0 0 0 0 0 0 0 0 0 0 0 0 0 0 0 0 0 0 0 0 0 0 0 0 0 0 0 0 0 0 0 0 0 0 0 0 0 0 0 0 0 0 0 0 0 0 0 0 0 0 0 0 0 0 0 0 0 0 0 0 0 0 0 0 0 0 0 0 0 0 0 0 0 0 0 0 0 0 0 0 0 0 0 0 0 0 0 0 0 0 0 0 0 0 0 0 0 0 0 0 0 0 0 0 0 0 0 0 0 0 0 0 0 0 0 0 0 0 0 0 0 0 0 0 0 0 0 0 0 0 0 0 0 0 0 0 0 0 0 0 0 0 0 0 0 0 0 0 0 0 0 0 0 0 0 0 0 0 0 0 0 0 0 0 0 0 0 0 0 0 0 0 0 0 0 0 0 0 0 0 0 0 0 0 0 0 0 0 0 0 0 0 0 0 0 0 0 0 0 0 0 0 0 0 0 0 0 0 0 0 0 0 0 0 0 0 0 0 0 0 0 0 0 0 0 0 0 0 0 0 0 0 0 0 0 0 0 0 0 0 0 0 0 0 0 0 0 0 0 0 0 0 0 0 0 0 0 0 0 0 0 0 0 0 0 0 0 0 0 0 0 0 0 0 0 0 0 0 0 0 0 0 0 0 0 0 0 0 0 0 0 0 0 0 0 0 0 0 0 0 0 0 0 0 0 0 0 0 0 0 0 0 0 0 0 0 0 0 0 0 0 0 0 0 0 0 0 0 0 0 0 0 0 0 0 0 0 0 0 0 0 0 0 0 0 0 0 0 0 0 0 0 0 0 0 0 0 0 0 0 0 0 0 0 0 0 0 0 0 0 0 0 0 0 0 0 0 0 0 0 0 0 0 0 0 0 0 0 0 0 0 0 0 0 0 0 0 0 0 0 0 0 0 0 0 0 0 0 0 0 0 0 0 0 0 0 0 0 0 0 0 0 0 0 0 0 0 0 0 0 0 0 0 0 0 0 0 0 0 0 0 0 0 0 0 0 0 0 0 0 0 0 0 0 0 0 0 0 0 0 0 0 0 0 0 0 0 0 0 0 0 0 0 0 0 0 0 0 0 0 0 0 0 0 0 0 0 0 0 0 0 0 0 0 0 0 0 0 0 0 0 0 0 0 0 0 0 0 0 0 0 0 0 0 0 0 0 0 0 0 0 0 0 0 0 0 0 0 0 0 0 0 0 0 0 0 0 0 0 0 0 0 0 0 0 0 0 0 0 0 0 0 0 0 0 0 0 0 0 0 0 0 0 0 0 0 0 0 0 0 0 0 0 0 0 0 0 0 0 0 0 0 0 0 0 0 0 0 0 0 0 0 0 0 0 0 0 0 0 0 0 0 0 0 0 0 0 0 0 0 0 0 0 0 0 0 0 0 0 0 0 0 0 0 0 0 0 0 0 0 0 0 0 0 0 0 0 0 0 0 0 0 0 0 0 0 0 0 0 0 0 0 0 0 0 0 0 0 0 0 0 0 0 0 0 0 0 0 0 0 0 0 0 0 0 0 0 0 0 0 0 0 0 0 0 0 0 0 0 0 0 0 0 0 0 0 0 0 0 0 0 0 0 0 0 0 0 0 0 0 0 0 0 0 0 0 0 0 0 0 0 0 0 0 0 0 0 0 0 0 0 0 0 0 0 0 0 0 0 0 0 0 0 0 0 0 0 0 0 0 0 0 0 0 0 0 0 0 0 0 0 0 0 0 0 0 0 0 0 0 0 0 0 0 0 0 0 0 0 0 0 0 0 0 0 0 0 0 0 0 0 0 0 0 0 0 0 0 0 0 0 0 0 0 0 0 0 0 0 0 0 0 0 0 0 0 0 0 0 0 0 0 0 0 0 0 0 0 0 0 0 0 0 0 0 0 0 0 0 0 0 0 0 0 0 0 0 0 0 0 0 0 0 0 0 0 0 0 0 0 0 0 0 0 0 0 0 0 0 0 0 0 0 0 0 0 0 0 0 0 0 0 0 0 0 0 0 0 0 0 0 0 0 0 0 0 0 0 0 0 0 0 0 0 0 0 0 0 0 0 0 0 0 0 0 0 0 0 0 0 0 0 0 0 0 0 0 0 0 0 0 0 0 0 0 0 0 0 0 0 0 0 0 0 0 0 0 0 0 0 0 0 0 0 0 0 0 0 0 0 0 0 0 0 0 0 0 0 0 0 0 0 0 0 0 0 0 0 0 0 0 0 0 0 0 0 0 0 0 0 0 0 0 0 0 0 0 0 0 0 0 0 0 0 0 0 0 0 0 0 0 0 0 0 0 0 0 0 0 0 0 0 0 0 0 0 0 0 0 0 0 0 0 0 0 0 0 0 0 0 0 0 0 0 0 0 0 0 0 0 0 0 0 0 0 0 0 0 0 0 0 0 0 0 0 0 0 0 0 0 0 0 0 0 0 0 0 0 0 0 0 0 0 0 0 0 0 0 0 0 0 0 0 0 0 0 0 0 0 0 0 0 0 0 0 0 0 0 0 0 0 0 0 0 0 0 0 0 0 0 0 0 0 0 0 0 0 0 0 0 0 0 0 0 0 0 0 0 0 0 0 0 0 0 0 0 0 0 0 0 0 0 0 0 0 0 0 0 0 0 0 0 0 0 0 0 0 0 0 0 0 0 0 0 0 0 0 0 0 0 0 0 0 0 0 0 0 0 0 0 0 0 0 0 0 0 0 0 0 0 0 0 0 0 0 0 0 0 0 0 0 0 0 0 0 0 0 0 0 0 0 0 0 0 0 0 0 0 0 0 0 0 0 0 0 0 0 0 0 0 0 0 0 0 0 0 0 0 0 0 0 0 0 0 0 0 0 0 0 0 0 0 0 0 0 0 0 0 0 0 0 0 0 0 0 0 0 0 0 0 0 0 0 0 0 0 0 0 0 0 0 0 0 0 0 0 0 0 0 0 0 0 0 0 0 0 0 0 0 0 0 0 0 0 0 0 0 0 0 0 0 0 0 0 0 0 0 0 0 0 0 0 0 0 0 0 0 0 0 0 0 0 0 0 0 0 0 0 0 0 0 0 0 0 0 0 0 0 0 0 0 0 0 0 0 0 0 0 0 0 0 0 0 0 0 0 0 0 0 0 0 0 0 0 0 0 0 0 0 0 0 0 0 0 0 0 0 0 0 0 0 0 0 0 0 0 0 0 0 0 0 0 0 0 0 0 0 0 0 0 0 0 0 0 0 0 0 0 0 0 0 0 0 0 0 0 0 0 0 0 0 0 0 0 0 0 0 0 0 0 0 0 0 0 0 0 0 0 0 0 0 0 0 0 0 0 0 0 0 0 0 0 0 0 0 0 0 0 0 0 0 0 0 0 0 0 0 0 0 0 0 0 0 0 0 0 0 0 0 0 0 0 0 0 0 0 0 0 0 0 0 0 0 0 0 0 0 0 0 0 0 0 0 0 0 0 0 0 0 0 0 0 0 0 0 0 0 0 0 0 0 0 0 0 0 0 0 0 0 0 0 0 0 0 0 0 0 0 0 0 0 0 0 0 0 0 0 0 0 0 0 0 0 0 0 0 0 0 0 0 0 0 0 0 0 0 0 0 0 0 0 0 0 0 0 0 0 0 0 0 0 0 0 0 0 0 0 0 0 0 0 0 0 0 0 0 0 0 0 0 0 0 0 0 0 0 0 0 0 0 0 0 0 0 0 0 0 0 0 0 0 0 0 0 0 0 0 0 0 0 0 0 0 0 0 0 0 0 0 0 0 0 0 0 0 0 0 0 0 0 0 0 0 0 0 0 0 0 0 0 0 0 0 0 0 0 0 0 0 0 0 0 0 0 0 0 0 0 0 0 0 0 0 0 0 0 0 0 0 0 0 0 0 0 0 0 0 0 0 0 0 0 0 0 0 0 0 0 0 0 0 0 0 0 0 0 0 0 0 0 0 0 0 0 0 0 0 0 0 0 0 0 0 0 0 0 0 0 0 0 0 0 0 0 0 0 0 0 0 0 0 0 0 0 0 0 0 0 0 0 0 0 0 0 0 0 0 0 0 0 0 0 0 0 0 0 0 0 0 0 0 0 0 0 0 0 0 0 0 0 0 0 0 0 0 0 0 0 0 0 0 0 0 0 0 0 0 0 0 0 0 0 0 0 0 0 0 0 0 0 0 0 0 0 0 0 0 0 0 0 0 0 0 0 0 0 0 0 0 0 0 0 0 0 0 0 0 0 0 0 0 0 0 0 0 0 0 0 0 0 0 0 0 0 0 0 0 0 0 0 0 0 0 0 0 0 0 0 0 0 0 0 0 0 0 0 0 0 0 0 0 0 0 0 0 0 0 0 0 0 0 0 0 0 0 0 0 0 0 0 0 0 0 0 0 0 0 0 0 0 0 0 0 0 0 0 0 0 0 0 0 0 0 0 0 0 0 0 0 0 0 0 0 0 0 0 0 0 0 0 0 0 0 0 0 0 0 0 0 0 0 0 0 0 0 0 0 0 0 0 0 0 0 0 0 0 0 0 0 0 0 0 0 0 0 0 0 0 0 0 0 0 0 0 0 0 0 0 0 0 0 0 0 0 0 0 0 0 0 0 0 0 0 0 0 0 0 0 0 0 0 0 0 0 0 0 0 0 0 0 0 0 0 0 0 0 0 0 0 0 0 0 0 0 0 0 0 0 0 0 0 0 0 0 0 0 0 0 0 0 0 0 0 0 0 0 0 0 0 0 0 0 0 0 0 0 0 0 0 0 0 0 0 0 0 0 0 0 0 0 0 0 0 0 0 0 0 0 0 0 0 0 0 0 0 0 0 0 0 0 0 0 0 0 0 0 0 0 0 0 0 0 0 0 0 0 0 0 0 0 0 0 0 0 0 0 0 0 0 0 0 0 0 0 0 0 0 0 0 0 0 0 0 0 0 0 0 0 0 0 0 0 0 0 0 0 0 0 0 0 0 0 0 0 0 0 0 0 0 0 0 0 0 0 0 0 0 0 0 0 0 0 0 0 0 0 0 0 0 0 0 0 0 0 0 0 0 0 0 0 0 0 0 0 0 0 0 0 0 0 0 0 0 0 0 0 0 0 0 0 0 0 0 0 0 0 0 0 0 0 0 0 0 0 0 0 0 0 0 0 0 0 0 0 0 0 0 0 0 0 0 0 0 0 0 0 0 0 0 0 0 0 0 0 0 0 0 0 0 0 0 0 0 0 0 0 0 0 0 0 0 0 0 0 0 0 0 0 0 0 0 0 0 0 0 0 0 0 0 0 0 0 0 0 0 0 0 0 0 0 0 0 0 0 0 0 0 0 0 0 0 0 0 0 0 0 0 0 0 0 0 0 0 0 0 0 0 0 0 0 0 0 0 0 0 0 0 0 0 0 0 0 0 0 0 0 0 0 0 0 0 0 0 0 0 0 0 0 0 0 0 0 0 0 0 0 0 0 0 0 0 0 0 0 0 0 0 0 0 0 0 0 0 0 0 0 0 0 0 0 0 0 0 0 0 0 0 0 0 0 0 0 0 0 0 0 0 0 0 0 0 0 0 0 0 0 0 0 0 0 0 0 0 0 0 0 0 0 0 0 0 0 0 0 0 0 0 0 0 0 0 0 0 0 0 0 0 0 0 0 0 0 0 0 0 0 0 0 0 0 0 0 0 0 0 0 0 0 0 0 0 0 0 0 0 0 0 0 0 0 0 0 0 0 0 0 0 0 0 0 0 0 0 0 0 0 0 0 0 0 0 0 0 0 0 0 0 0 0 0 0 0 0 0 0 0 0 0 0 0 0 0 0 0 0 0 0 0 0 0 0 0 0 0 0 0 0 0 0 0 0 0 0 0 0 0 0 0 0 0 0 0 0 0 0 0 0 0 0 0 0 0 0 0 0 0 0 0 0 0 0 0 0 0 0 0 0 0 0 0 0 0 0 0 0 0 0 0 0 0 0 0 0 0 0 0 0 0 0 0 0 0 0 0 0 0 0 0 0 0 0 0 0 0 0 0 0 0 0 0 0 0 0 0 0 0 0 0 0 0 0 0 0 0 0 0 0 0 0 0 0 0 0 0 0 0 0 0 0 0 0 0 0 0 0 0 0 0 0 0 0 0 0 0 0 0 0 0 0 0 0 0 0 0 0 0 0 0 0 0 0 0 0 0 0 0 0 0 0 0 0 0 0 0 0 0 0 0 0 0 0 0 0 0 0 0 0 0 0 0 0 0 0 0 0 0 0 0 0 0 0 0 0 0 0 0 0 0 0 0 0 0 0 0 0 0 0 0 0 0 0 0 0 0 0 0 0 0 0 0 0 0 0 0 0 0 0 0 0 0 0 0 0 0 0 0 0 0 0 0 0 0 0 0 0 0 0 0 0 0 0 0 0 0 0 0 0 0 0 0 0 0 0 0 0 0 0 0 0 0 0 0 0 0 0 0 0 0 0 0 0 0 0 0 0 0 0 0 0 0 0 0 0 0 0 0 0 0 0 0 0 0 0 0 0 0 0 0 0 0 0 0 0 0 0 0 0 0 0 0 0 0 0 0 0 0 0 0 0 0 0 0 0 0 0 0 0 0 0 0 0 0 0 0 0 0 0 0 0 0 0 0 0 0 0 0 0 0 0 0 0 0 0 0 0 0 0 0 0 0 0 0 0 0 0 0 0 0 0 0 0 0 0 0 0 0 0 0 0 0 0 0 0 0 0 0 0 0 0 0 0 0 0 0 0 0 0 0 0 0 0 0 0 0 0 0 0 0 0 0 0 0 0 0 0 0 0 0 0 0 0 0 0 0 0 0 0 0 0 0 0 0 0 0 0 0 0 0 0 0 0 0 0 0 0 0 0 0 0 0 0 0 0 0 0 0 0 0 0 0 0 0 0 0 0 0 0 0 0 0 0 0 0 0 0 0 0 0 0 0 0 0 0 0 0 0 0 0 0 0 0 0 0 0 0 0 0 0 0 0 0 0 0 0 0 0 0 0 0 0 0 0 0 0 0 0 0 0 0 0 0 0 0 0 0 0 0 0 0 0 0 0 0 0 0 0 0 0 0 0 0 0 0 0 0 0 0 0 0 0 0 0 0 0 0 0 0 0 0 0 0 0 0 0 0 0 0 0 0 0 0 0 0 0 0 0 0 0 0 0 0 0 0 0 0 0 0 0 0 0 0 0 0 0 0 0 0 0 0 0 0 0 0 0 0 0 0 0 0 0 0 0 0 0 0 0 0 0 0 0 0 0 0 0 0 0 0 0 0 0 0 0 0 0 0 0 0 0 0 0 0 0 0 0 0 0 0 0 0 0 0 0 0 0 0 0 0 0 0 0 0 0 0 0 0 0 0 0 0 0 0 0 0 0 0 0 0 0 0 0 0 0 0 0 0 0 0 0 0 0 0 0 0 0 0 0 0 0 0 0 0 0 0 0 0 0 0 0 0 0 0 0 0 0 0 0 0 0 0 0 0 0 0 0 0 0 0 0 0 0 0 0 0 0 0 0 0 0 0 0 0 0 0 0 0 0 0 0 0 0 0 0 0 0 0 0 0 0 0 0 0 0 0 0 0 0 0 0 0 0 0 0 0 0 0 0 0 0 0 0 0 0 0 0 0 0 0 0 0 0 0 0 0 0 0 0 0 0 0 0 0 0 0 0 0 0 0 0 0 0 0 0 0 0 0 0 0 0 0 0 0 0 0 0 0 0 0 0 0 0 0 0 0 0 0 0 0 0 0 0 0 0 0 0 0 0 0 0 0 0 0 0 0 0 0 0 0 0 0 0 0 0 0 0 0 0 0 0 0 0 0 0 0 0 0 0 0 0 0 0 0 0 0 0 0 0 0 0 0 0 0 0 0 0 0 0 0 0 0 0 0 0 0 0 0 0 0 0 0 0 0 0 0 0 0 0 0 0 0 0 0 0 0 0 0 0 0 0 0 0 0 0 0 0 0 0 0 0 0 0 0 0 0 0 0 0 0 0 0 0 0 0 0 0 0 0 0 0 0 0 0 0 0 0 0 0 0 0 0 0 0 0 0 0 0 0 0 0 0 0 0 0 0 0 0 0 0 0 0 0 0 0 0 0 0 0 0 0 0 0 0 0 0 0 0 0 0 0 0 0 0 0 0 0 0 0 0 0 0 0 0 0 0 0 0 0 0 0 0 0 0 0 0 0 0 0 0 0 0 0 0 0 0 0 0 0 0 0 0 0 0 0 0 0 0 0 0 0 0 0 0 0 0 0 0 0 0 0 0 0 0 0 0 0 0 0 0 0 0 0 0 0 0 0 0 0 0 0 0 0 0 0 0 0 0 0 0 0 0 0 0 0 0 0 0 0 0 0 0 0 0 0 0 0 0 0 0 0 0 0 0 0 0 0 0 0 0 0 0 0 0 0 0 0 0 0 0 0 0 0 0 0 0 0 0 0 0 0 0 0 0 0 0 0 0 0 0 0 0 0 0 0 0 0 0 0 0 0 0 0 0 0 0 0 0 0 0 0 0 0 0 0 0 0 0 0 0 0 0 0 0 0 0 0 0 0 0 0 0 0 0 0 0 0 0 0 0 0 0 0 0 0 0 0 0 0 0 0 0 0 0 0 0 0 0 0 0 0 0 0 0 0 0 0 0 0 0 0 0 0 0 0 0 0 0 0 0 0 0 0 0 0 0 0 0 0 0 0 0 0 0 0 0 0 0 0 0 0 0 0 0 0 0 0 0 0 0 0 0 0 0 0 0 0 0 0 0 0 0 0 0 0 0 0 0 0 0 0 0 0 0 0 0 0 0 0 0 0 0 0 0 0 0 0 0 0 0 0 0 0 0 0 0 0 0 0 0 0 0 0 0 0 0 0 0 0 0 0 0 0 0 0 0 0 0 0 0 0 0 0 0 0 0 0 0 0 0 0 0 0 0 0 0 0 0 0 0 0 0 0 0 0 0 0 0 0 0 0 0 0 0 0 0 0 0 0 0 0 0 0 0 0 0 0 0 0 0 0 0 0 0 0 0 0 0 0 0 0 0 0 0 0 0 0 0 0 0 0 0 0 0 0 0 0 0 0 0 0 0 0 0 0 0 0 0 0 0 0 0 0 0 0 0 0 0 0 0 0 0 0 0 0 0 0 0 0 0 0 0 0 0 0 0 0 0 0 0 0 0 0 0 0 0 0 0 0 0 0 0 0 0 0 0 0 0 0 0 0 0 0 0 0 0 0 0 0 0 0 0 0 0 0 0 0 0 0 0 0 0 0 0 0 0 0 0 0 0 0 0 0 0 0 0 0 0 0 0 0 0 0 0 0 0 0 0 0 0 0 0 0 0 0 0 0 0 0 0 0 0 0 0 0 0 0 0 0 0 0 0 0 0 0 0 0 0 0 0 0 0 0 0 0 0 0 0 0 0 0 0 0 0 0 0 0 0 0 0 0 0 0 0 0 0 0 0 0 0 0 0 0 0 0 0 0 0 0 0 0 0 0 0 0 0 0 0 0 0 0 0 0 0 0 0 0 0 0 0 0 0 0 0 0 0 0 0 0 0 0 0 0 0 0 0 0 0 0 0 0 0 0 0 0 0 0 0 0 0 0 0 0 0 0 0 0 0 0 0 0 0 0 0 0 0 0 0 0 0 0 0 0 0 0 0 0 0 0 0 0 0 0 0 0 0 0 0 0 0 0 0 0 0 0 0 0 0 0 0 0 0 0 0 0 0 0 0 0 0 0 0 0 0 0 0 0 0 0 0 0 0 0 0 0 0 0 0 0 0 0 0 0 0 0 0 0 0 0 0 0 0 0 0 0 0 0 0 0 0 0 0 0 0 0 0 0 0 0 0 0 0 0 0 0 0 0 0 0 0 0 0 0 0 0 0 0 0 0 0 0 0 0 0 0 0 0 0 0 0 0 0 0 0 0 0 0 0 0 0 0 0 0 0 0 0 0 0 0 0 0 0 0 0 0 0 0 0 0 0 0 0 0 0 0 0 0 0 0 0 0 0 0 0 0 0 0 0 0 0 0 0 0 0 0 0 0 0 0 0 0 0 0 0 0 0 0 0 0 0 0 0 0 0 0 0 0 0 0 0 0 0 0 0 0 0 0 0 0 0 0 0 0 0 0 0 0 0 0 0 0 0 0 0 0 0 0 0 0 0 0 0 0 0 0 0 0 0 0 0 0 0 0 0 0 0 0 0 0 0 0 0 0 0 0 0 0 0 0 0 0 0 0 0 0 0 0 0 0 0 0 0 0 0 0 0 0 0 0 0 0 0 0 0 0 0 0 0 0 0 0 0 0 0 0 0 0 0 0 0 0 0 0 0 0 0 0 0 0 0 0 0 0 0 0 0 0 0 0 0 0 0 0 0 0 0 0 0 0 0 0 0 0 0 0 0 0 0 0 0 0 0 0 0 0 0 0 0 0 0 0 0 0 0 0 0 0 0 0 0 0 0 0 0 0 0 0 0 0 0 0 0 0 0 0 0 0 0 0 0 0 0 0 0 0 0 0 0 0 0 0 0 0 0 0 0 0 0 0 0 0 0 0 0 0 0 0 0 0 0 0 0 0 0 0 0 0 0 0 0 0 0 0 0 0 0 0 0 0 0 0 0 0 0 0 0 0 0 0 0 0 0 0 0 0 0 0 0 0 0 0 0 0 0 0 0 0 0 0 0 0 0 0 0 0 0 0 0 0 0 0 0 0 0 0 0 0 0 0 0 0 0 0 0 0 0 0 0 0 0 0 0 0 0 0 0 0 0 0 0 0 0 0 0 0 0 0 0 0 0 0 0 0 0 0 0 0 0 0 0 0 0 0 0 0 0 0 0 0 0 0 0 0 0 0 0 0 0 0 0 0 0 0 0 0 0 0 0 0 0 0 0 0 0 0 0 0 0 0 0 0 0 0 0 0 0 0 0 0 0 0 0 0 0 0 0 0 0 0 0 0 0 0 0 0 0 0 0 0 0 0 0 0 0 0 0 0 0 0 0 0 0 0 0 0 0 0 0 0 0 0 0 0 0 0 0 0 0 0 0 0 0 0 0 0 0 0 0 0 0 0 0 0 0 0 0 0 0 0 0 0 0 0 0 0 0 0 0 0 0 0 0 0 0 0 0 0 0 0 0 0 0 0 0 0 0 0 0 0 0 0 0 0 0 0 0 0 0 0 0 0 0 0 0 0 0 0 0 0 0 0 0 0 0 0 0 0 0 0 0 0 0 0 0 0 0 0 0 0 0 0 0 0 0 0 0 0 0 0 0 0 0 0 0 0 0 0 0 0 0 0 0 0 0 0 0 0 0 0 0 0 0 0 0 0 0 0 0 0 0 0 0 0 0 0 0 0 0 0 0 0 0 0 0 0 0 0 0 0 0 0 0 0 0 0 0 0 0 0 0 0 0 0 0 0 0 0 0 0 0 0 0 0 0 0 0 0 0 0 0 0 0 0 0 0 0 0 0 0 0 0 0 0 0 0 0 0 0 0 0 0 0 0 0 0 0 0 0 0 0 0 0 0 0 0 0 0 0 0 0 0 0 0 0 0 0 0 0 0 0 0 0 0 0 0 0 0 0 0 0 0 0 0 0 0 0 0 0 0 0 0 0 0 0 0 0 0 0 0 0 0 0 0 0 0 0 0 0 0 0 0 0 0 0 0 0 0 0 0 0 0 0 0 0 0 0 0 0 0 0 0 0 0 0 0 0 0 0 0 0 0 0 0 0 0 0 0 0 0 0 0 0 0 0 0 0 0 0 0 0 0 0 0 0 0 0 0 0 0 0 0 0 0 0 0 0 0 0 0 0 0 0 0 0 0 0 0 0 0 0 0 0 0 0 0 0 0 0 0 0 0 0 0 0 0 0 0 0 0 0 0 0 0 0 0 0 0 0 0 0 0 0 0 0 0 0 0 0 0 0 0 0 0 0 0 0 0 0 0 0 0 0 0 0 0 0 0 0 0 0 0 0 0 0 0 0 0 0 0 0 0 0 0 0 0 0 0 0 0 0 0 0 0 0 0 0 0 0 0 0 0 0 0 0 0 0 0 0 0 0 0 0 0 0 0 0 0 0 0 0 0 0 0 0 0 0 0 0 0 0 0 0 0 0 0 0 0 0 0 0 0 0 0 0 0 0 0 0 0 0 0 0 0 0 0 0 0 0 0 0 0 0 0 0 0 0 0 0 0 0 0 0 0 0 0 0 0 0 0 0 0 0 0 0 0 0 0 0 0 0 0 0 0 0 0 0 0 0 0 0 0 0 0 0 0 0 0 0 0 0 0 0 0 0 0 0 0 0 0 0 0 0 0 0 0 0 0 0 0 0 0 0 0 0 0 0 0 0 0 0 0 0 0 0 0 0 0 0 0 0 0 0 0 0 0 0 0 0 0 0 0 0 0 0 0 0 0 0 0 0 0 0 0 0 0 0 0 0 0 0 0 0 0 0 0 0 0 0 0 0 0 0 0 0 0 0 0 0 0 0 0 0 0 0 0 0 0 0 0 0 0 0 0 0 0 0 0 0 0 0 0 0 0 0 0 0 0 0 0 0 0 0 0 0 0 0 0 0 0 0 0 0 0 0 0 0 0 0 0 0 0 0 0 0 0 0 0 0 0 0 0 0 0 0 0 0 0 0 0 0 0 0 0 0 0 0 0 0 0 0 0 0 0 0 0 0 0 0 0 0 0 0 0 0 0 0 0 0 0 0 0 0 0 0 0 0 0 0 0 0 0 0 0 0 0 0 0 0 0 0 0 0 0 0 0 0 0 0 0 0 0 0 0 0 0 0 0 0 0 0 0 0 0 0 0 0 0 0 0 0 0 0 0 0 0 0 0 0 0 0 0 0 0 0 0 0 0 0 0 0 0 0 0 0 0 0 0 0 0 0 0 0 0 0 0 0 0 0 0 0 0 0 0 0 0 0 0 0 0 0 0 0 0 0 0 0 0 0 0 0 0 0 0 0 0 0 0 0 0 0 0 0 0 0 0 0 0 0 0 0 0 0 0 0 0 0 0 0 0 0 0 0 0 0 0 0 0 0 0 0 0 0 0 0 0 0 0 0 0 0 0 0 0 0 0 0 0 0 0 0 0 0 0 0 0 0 0 0 0 0 0 0 0 0 0 0 0 0 0 0 0 0 0 0 0 0 0 0 0 0 0 0 0 0 0 0 0 0 0 0 0 0 0 0 0 0 0 0 0 0 0 0 0 0 0 0 0 0 0 0 0 0 0 0 0 0 0 0 0 0 0 0 0 0 0 0 0 0 0 0 0 0 0 0 0 0 0 0 0 0 0 0 0 0 0 0 0 0 0 0 0 0 0 0 0 0 0 0 0 0 0 0 0 0 0 0 0 0 0 0 0 0 0 0 0 0 0 0 0 0 0 0 0 0 0 0 0 0 0 0 0 0 0 0 0 0 0 0 0 0 0 0 0 0 0 0 0 0 0 0 0 0 0 0 0 0 0 0 0 0 0 0 0 0 0 0 0 0 0 0 0 0 0 0 0 0 0 0 0 0 0 0 0 0 0 0 0 0 0 0 0 0 0 0 0 0 0 0 0 0 0 0 0 0 0 0 0 0 0 0 0 0 0 0 0 0 0 0 0 0 0 0 0 0 0 0 0 0 0 0 0 0 0 0 0 0 0 0 0 0 0 0 0 0 0 0 0 0 0 0 0 0 0 0 0 0 0 0 0 0 0 0 0 0 0 0 0 0 0 0 0 0 0 0 0 0 0 0 0 0 0 0 0 0 0 0 0 0 0 0 0 0 0 0 0 0 0 0 0 0 0 0 0 0 0 0 0 0 0 0 0 0 0 0 0 0 0 0 0 0 0 0 0 0 0 0 0 0 0 0 0 0 0 0 0 0 0 0 0 0 0 0 0 0 0 0 0 0 0 0 0 0 0 0 0 0 0 0 0 0 0 0 0 0 0 0 0 0 0 0 0 0 0 0 0 0 0 0 0 0 0 0 0 0 0 0 0 0 0 0 0 0 0 0 0 0 0 0 0 0 0 0 0 0 0 0 0 0 0 0 0 0 0 0 0 0 0 0 0 0 0 0 0 0 0 0 0 0 0 0 0 0 0 0 0 0 0 0 0 0 0 0 0 0 0 0 0 0 0 0 0 0 0 0 0 0 0 0 0 0 0 0 0 0 0 0 0 0 0 0 0 0 0 0 0 0 0 0 0 0 0 0 0 0 0 0 0 0 0 0 0 0 0 0 0 0 0 0 0 0 0 0 0 0 0 0 0 0 0 0 0 0 0 0 0 0 0 0 0 0 0 0 0 0 0 0 0 0 0 0 0 0 0 0 0 0 0 0 0 0 0 0 0 0 0 0 0 0 0 0 0 0 0 0 0 0 0 0 0 0 0 0 0 0 0 0 0 0 0 0 0 0 0 0 0 0 0 0 0 0 0 0 0 0 0 0 0 0 0 0 0 0 0 0 0 0 0 0 0 0 0 0 0 0 0 0 0 0 0 0 0 0 0 0 0 0 0 0 0 0 0 0 0 0 0 0 0 0 0 0 0 0 0 0 0 0 0 0 0 0 0 0 0 0 0 0 0 0 0 0 0 0 0 0 0 0 0 0 0 0 0 0 0 0 0 0 0 0 0 0 0 0 0 0 0 0 0 0 0 0 0 0 0 0 0 0 0 0 0 0 0 0 0 0 0 0 0 0 0 0 0 0 0 0 0 0 0 0 0 0 0 0 0 0 0 0 0 0 0 0 0 0 0 0 0 0 0 0 0 0 0 0 0 0 0 0 0 0 0 0 0 0 0 0 0 0 0 0 0 0 0 0 0 0 0 0 0 0 0 0 0 0 0 0 0 0 0 0 0 0 0 0 0 0 0 0 0 0 0 0 0 0 0 0 0 0 0 0 0 0 0 0 0 0 0 0 0 0 0 0 0 0 0 0 0 0 0 0 0 0 0 0 0 0 0 0 0 0 0 0 0 0 0 0 0 0 0 0 0 0 0 0 0 0 0 0 0 0 0 0 0 0 0 0 0 0 0 0 0 0 0 0 0 0 0 0 0 0 0 0 0 0 0 0 0 0 0 0 0 0 0 0 0 0 0 0 0 0 0 0 0 0 0 0 0 0 0 0 0 0 0 0 0 0 0 0 0 0 0 0 0 0 0 0 0 0 0 0 0 0 0 0 0 0 0 0 0 0 0 0 0 0 0 0 0 0 0 0 0 0 0 0 0 0 0 0 0 0 0 0 0 0 0 0 0 0 0 0 0 0 0 0 0 0 0 0 0 0 0 0 0 0 0 0 0 0 0 0 0 0 0 0 0 0 0 0 0 0 0 0 0 0 0 0 0 0 0 0 0 0 0 0 0 0 0 0 0 0 0 0 0 0 0 0 0 0 0 0 0 0 0 0 0 0 0 0 0 0 0 0 0 0 0 0 0 0 0 0 0 0 0 0 0 0 0 0 0 0 0 0 0 0 0 0 0 0 0 0 0 0 0 0 0 0 0 0 0 0 0 0 0 0 0 0 0 0 0 0 0 0 0 0 0 0 0 0 0 0 0 0 0 0 0 0 0 0 0 0 0 0 0 0 0 0 0 0 0 0 0 0 0 0 0 0 0 0 0 0 0 0 0 0 0 0 0 0 0 0 0 0 0 0 0 0 0 0 0 0 0 0 0 0 0 0 0 0 0 0 0 0 0 0 0 0 0 0 0 0 0 0 0 0 0 0 0 0 0 0 0 0 0 0 0 0 0 0 0 0 0 0 0 0 0 0 0 0 0 0 0 0 0 0 0 0 0 0 0 0 0 0 0 0 0 0 0 0 0 0 0 0 0 0 0 0 0 0 0 0 0 0 0 0 0 0 0 0 0 0 0 0 0 0 0 0 0 0 0 0 0 0 0 0 0 0 0 0 0 0 0 0 0 0 0 0 0 0 0 0 0 0 0 0 0 0 0 0 0 0 0 0 0 0 0 0 0 0 0 0 0 0 0 0 0 0 0 0 0 0 0 0 0 0 0 0 0 0 0 0 0 0 0 0 0 0 0 0 0 0 0 0 0 0 0 0 0 0 0 0 0 0 0 0 0 0 0 0 0 0 0 0 0 0 0 0 0 0 0 0 0 0 0 0 0 0 0 0 0 0 0 0 0 0 0 0 0 0 0 0 0 0 0 0 0 0 0 0 0 0 0 0 0 0 0 0 0 0 0 0 0 0 0 0 0 0 0 0 0 0 0 0 0 0 0 0 0 0 0 0 0 0 0 0 0 0 0 0 0 0 0 0 0 0 0 0 0 0 0 0 0 0 0 0 0 0 0 0 0 0 0 0 0 0 0 0 0 0 0 0 0 0 0 0 0 0 0 0 0 0 0 0 0 0 0 0 0 0 0 0 0 0 0 0 0 0 0 0 0 0 0 0 0 0 0 0 0 0 0 0 0 0 0 0 0 0 0 0 0 0 0 0 0 0 0 0 0 0 0 0 0 0 0 0 0 0 0 0 0 0 0 0 0 0 0 0 0 0 0 0 0 0 0 0 0 0 0 0 0 0 0 0 0 0 0 0 0 0 0 0 0 0 0 0 0 0 0 0 0 0 0 0 0 0 0 0 0 0 0 0 0 0 0 0 0 0 0 0 0 0 0 0 0 0 0 0 0 0 0 0 0 0 0 0 0 0 0 0 0 0 0 0 0 0 0 0 0 0 0 0 0 0 0 0 0 0 0 0 0 0 0 0 0 0 0 0 0 0 0 0 0 0 0 0 0 0 0 0 0 0 0 0 0 0 0 0 0 0 0 0 0 0 0 0 0 0 0 0 0 0 0 0 0 0 0 0 0 0 0 0 0 0 0 0 0 0 0 0 0 0 0 0 0 0 0 0 0 0 0 0 0 0 0 0 0 0 0 0 0 0 0 0 0 0 0 0 0 0 0 0 0 0 0 0 0 0 0 0 0 0 0 0 0 0 0 0 0 0 0 0 0 0 0 0 0 0 0 0 0 0 0 0 0 0 0 0 0 0 0 0 0 0 0 0 0 0 0 0 0 0 0 0 0 0 0 0 0 0 0 0 0 0 0 0 0 0 0 0 0 0 0 0 0 0 0 0 0 0 0 0 0 0 0 0 0 0 0 0 0 0 0 0 0 0 0 0 0 0 0 0 0 0 0 0 0 0 0 0 0 0 0 0 0 0 0 0 0 0 0 0 0 0 0 0 0 0 0 0 0 0 0 0 0 0 0 0 0 0 0 0 0 0 0 0 0 0 0 0 0 0 0 0 0 0 0 0 0 0 0 0 0 0 0 0 0 0 0 0 0 0 0 0 0 0 0 0 0 0 0 0 0 0 0 0 0 0 0 0 0 0 0 0 0 0 0 0 0 0 0 0 0 0 0 0 0 0 0 0 0 0 0 0 0 0 0 0 0 0 0 0 0 0 0 0 0 0 0 0 0 0 0 0 0 0 0 0 0 0 0 0 0 0 0 0 0 0 0 0 0 0 0 0 0 0 0 0 0 0 0 0 0 0 0 0 0 0 0 0 0 0 0 0 0 0 0 0 0 0 0 0 0 0 0 0 0 0 0 0 0 0 0 0 0 0 0 0 0 0 0 0 0 0 0 0 0 0 0 0 0 0 0 0 0 0 0 0 0 0 0 0 0 0 0 0 0 0 0 0 0 0 0 0 0 0 0 0 0 0 0 0 0 0 0 0 0 0 0 0 0 0 0 0 0 0 0 0 0 0 0 0 0 0 0 0 0 0 0 0 0 0 0 0 0 0 0 0 0 0 0 0 0 0 0 0 0 0 0 0 0 0 0 0 0 0 0 0 0 0 0 0 0 0 0 0 0 0 0 0 0 0 0 0 0 0 0 0 0 0 0 0 0 0 0 0 0 0 0 0 0 0 0 0 0 0 0 0 0 0 0 0 0 0 0 0 0 0 0 0 0 0 0 0 0 0 0 0 0 0 0 0 0 0 0 0 0 0 0 0 0 0 0 0 0 0 0 0 0 0 0 0 0 0 0 0 0 0 0 0 0 0 0 0 0 0 0 0 0 0 0 0 0 0 0 0 0 0 0 0 0 0 0 0 0 0 0 0 0 0 0 0 0 0 0 0 0 0 0 0 0 0 0 0 0 0 0 0 0 0 0 0 0 0 0 0 0 0 0 0 0 0 0 0 0 0 0 0 0 0 0 0 0 0 0 0 0 0 0 0 0 0 0 0 0 0 0 0 0 0 0 0 0 0 0 0 0 0 0 0 0 0 0 0 0 0 0 0 0 0 0 0 0 0 0 0 0 0 0 0 0 0 0 0 0 0 0 0 0 0 0 0 0 0 0 0 0 0 0 0 0 0 0 0 0 0 0 0 0 0 0 0 0 0 0 0 0 0 0 0 0 0 0 0 0 0 0 0 0 0 0 0 0 0 0 0 0 0 0 0 0 0 0 0 0 0 0 0 0 0 0 0 0 0 0 0 0 0 0 0 0 0 0 0 0 0 0 0 0 0 0 0 0 0 0 0 0 0 0 0 0 0 0 0 0 0 0 0 0 0 0 0 0 0 0 0 0 0 0 0 0 0 0 0 0 0 0 0 0 0 0 0 0 0 0 0 0 0 0 0 0 0 0 0 0 0 0 0 0 0 0 0 0 0 0 0 0 0 0 0 0 0 0 0 0 0 0 0 0 0 0 0 0 0 0 0 0 0 0 0 0 0 0 0 0 0 0 0 0 0 0 0 0 0 0 0 0 0 0 0 0 0 0 0 0 0 0 0 0 0 0 0 0 0 0 0 0 0 0 0 0 0 0 0 0 0 0 0 0 0 0 0 0 0 0 0 0 0 0 0 0 0 0 0 0 0 0 0 0 0 0 0 0 0 0 0 0 0 0 0 0 0 0 0 0 0 0 0 0 0 0 0 0 0 0 0 0 0 0 0 0 0 0 0 0 0 0 0 0 0 0 0 0 0 0 0 0 0 0 0 0 0 0 0 0 0 0 0 0 0 0 0 0 0 0 0 0 0 0 0 0 0 0 0 0 0 0 0 0 0 0 0 0 0 0 0 0 0 0 0 0 0 0 0 0 0 0 0 0 0 0 0 0 0 0 0 0 0 0 0 0 0 0 0 0 0 0 0 0 0 0 0 0 0 0 0 0 0 0 0 0 0 0 0 0 0 0 0 0 0 0 0 0 0 0 0 0 0 0 0 0 0 0 0 0 0 0 0 0 0 0 0 0 0 0 0 0 0 0 0 0 0 0 0 0 0 0 0 0 0 0 0 0 0 0 0 0 0 0 0 0 0 0 0 0 0 0 0 0 0 0 0 0 0 0 0 0 0 0 0 0 0 0 0 0 0 0 0 0 0 0 0 0 0 0 0 0 0 0 0 0 0 0 0 0 0 0 0 0 0 0 0 0 0 0 0 0 0 0 0 0 0 0 0 0 0 0 0 0 0 0 0 0 0 0 0 0 0 0 0 0 0 0 0 0 0 0 0 0 0 0 0 0 0 0 0 0 0 0 0 0 0 0 0 0 0 0 0 0 0 0 0 0 0 0 0 0 0 0 0 0 0 0 0 0 0 0 0 0 0 0 0 0 0 0 0 0 0 0 0 0 0 0 0 0 0 0 0 0 0 0 0 0 0 0 0 0 0 0 0 0 0 0 0 0 0 0 0 0 0 0 0 0 0 0 0 0 0 0 0 0 0 0 0 0 0 0 0 0 0 0 0 0 0 0 0 0 0 0 0 0 0 0 0 0 0 0 0 0 0 0 0 0 0 0 0 0 0 0 0 0 0 0 0 0 0 0 0 0 0 0 0 0 0 0 0 0 0 0 0 0 0 0 0 0 0 0 0 0 0 0 0 0 0 0 0 0 0 0 0 0 0 0 0 0 0 0 0 0 0 0 0 0 0 0 0 0 0 0 0 0 0 0 0 0 0 0 0 0 0 0 0 0 0 0 0 0 0 0 0 0 0 0 0 0 0 0 0 0 0 0 0 0 0 0 0 0 0 0 0 0 0 0 0 0 0 0 0 0 0 0 0 0 0 0 0 0 0 0 0 0 0 0 0 0 0 0 0 0 0 0 0 0 0 0 0 0 0 0 0 0 0 0 0 0 0 0 0 0 0 0 0 0 0 0 0 0 0 0 0 0 0 0 0 0 0 0 0 0 0 0 0 0 0 0 0 0 0 0 0 0 0 0 0 0 0 0 0 0 0 0 0 0 0 0 0 0 0 0 0 0 0 0 0 0 0 0 0 0 0 0 0 0 0 0 0 0 0 0 0 0 0 0 0 0 0 0 0 0 0 0 0 0 0 0 0 0 0 0 0 0 0 0 0 0 0 0 0 0 0 0 0 0 0 0 0 0 0 0 0 0 0 0 0 0 0 0 0 0 0 0 0 0 0 0 0 0 0 0 0 0 0 0 0 0 0 0 0 0 0 0 0 0 0 0 0 0 0 0 0 0 0 0 0 0 0 0 0 0 0 0 0 0 0 0 0 0 0 0 0 0 0 0 0 0 0 0 0 0 0 0 0 0 0 0 0 0 0 0 0 0 0 0 0 0 0 0 0 0 0 0 0 0 0 0 0 0 0 0 0 0 0 0 0 0 0 0 0 0 0 0 0 0 0 0 0 0 0 0 0 0 0 0 0 0 0 0 0 0 0 0 0 0 0 0 0 0 0 0 0 0 0 0 0 0 0 0 0 0 0 0 0 0 0 0 0 0 0 0 0 0 0 0 0 0 0 0 0 0 0 0 0 0 0 0 0 0 0 0 0 0 0 0 0 0 0 0 0 0 0 0 0 0 0 0 0 0 0 0 0 0 0 0 0 0 0 0 0 0 0 0 0 0 0 0 0 0 0 0 0 0 0 0 0 0 0 0 0 0 0 0 0 0 0 0 0 0 0 0 0 0 0 0 0 0 0 0 0 0 0 0 0 0 0 0 0 0 0 0 0 0 0 0 0 0 0 0 0 0 0 0 0 0 0 0 0 0 0 0 0 0 0 0 0 0 0 0 0 0 0 0 0 0 0 0 0 0 0 0 0 0 0 0 0 0 0 0 0 0 0 0 0 0 0 0 0 0 0 0 0 0 0 0 0 0 0 0 0 0 0 0 0 0 0 0 0 0 0 0 0 0 0 0 0 0 0 0 0 0 0 0 0 0 0 0 0 0 0 0 0 0 0 0 0 0 0 0 0 0 0 0 0 0 0 0 0 0 0 0 0 0 0 0 0 0 0 0 0 0 0 0 0 0 0 0 0 0 0 0 0 0 0 0 0 0 0 0 0 0 0 0 0 0 0 0 0 0 0 0 0 0 0 0 0 0 0 0 0 0 0 0 0 0 0 0 0 0 0 0 0 0 0 0 0 0 0 0 0 0 0 0 0 0 0 0 0 0 0 0 0 0 0 0 0 0 0 0 0 0 0 0 0 0 0 0 0 0 0 0 0 0 0 0 0 0 0 0 0 0 0 0 0 0 0 0 0 0 0 0 0 0 0 0 0 0 0 0 0 0 0 0 0 0 0 0 0 0 0 0 0 0 0 0 0 0 0 0 0 0 0 0 0 0 0 0 0 0 0 0 0 0 0 0 0 0 0 0 0 0 0 0 0 0 0 0 0 0 0 0 0 0 0 0 0 0 0 0 0 0 0 0 0 0 0 0 0 0 0 0 0 0 0 0 0 0 0 0 0 0 0 0 0 0 0 0 0 0 0 0 0 0 0 0 0 0 0 0 0 0 0 0 0 0 0 0 0 0 0 0 0 0 0 0 0 0 0 0 0 0 0 0 0 0 0 0 0 0 0 0 0 0 0 0 0 0 0 0 0 0 0 0 0 0 0 0 0 0 0 0 0 0 0 0 0 0 0 0 0 0 0 0 0 0 0 0 0 0 0 0 0 0 0 0 0 0 0 0 0 0 0 0 0 0 0 0 0 0 0 0 0 0 0 0 0 0 0 0 0 0 0 0 0 0 0 0 0 0 0 0 0 0 0 0 0 0 0 0 0 0 0 0 0 0 0 0 0 0 0 0 0 0 0 0 0 0 0 0 0 0 0 0 0 0 0 0 0 0 0 0 0 0 0 0 0 0 0 0 0 0 0 0 0 0 0 0 0 0 0 0 0 0 0 0 0 0 0 0 0 0 0 0 0 0 0 0 0 0 0 0 0 0 0 0 0 0 0 0 0 0 0 0 0 0 0 0 0 0 0 0 0 0 0 0 0 0 0 0 0 0 0 0 0 0 0 0 0 0 0 0 0 0 0 0 0 0 0 0 0 0 0 0 0 0 0 0 0 0 0 0 0 0 0 0 0 0 0 0 0 0 0 0 0 0 0 0 0 0 0 0 0 0 0 0 0 0 0 0 0 0 0 0 0 0 0 0 0 0 0 0 0 0 0 0 0 0 0 0 0 0 0 0 0 0 0 0 0 0 0 0 0 0 0 0 0 0 0 0 0 0 0 0 0 0 0 0 0 0 0 0 0 0 0 0 0 0 0 0 0 0 0 0 0 0 0 0 0 0 0 0 0 0 0 0 0 0 0 0 0 0 0 0 0 0 0 0 0 0 0 0 0 0 0 0 0 0 0 0 0 0 0 0 0 0 0 0 0 0 0 0 0 0 0 0 0 0 0 0 0 0 0 0 0 0 0 0 0 0 0 0 0 0 0 0 0 0 0 0 0 0 0 0 0 0 0 0 0 0 0 0 0 0 0 0 0 0 0 0 0 0 0 0 0 0 0 0 0 0 0 0 0 0 0 0 0 0 0 0 0 0 0 0 0 0 0 0 0 0 0 0 0 0 0 0 0 0 0 0 0 0 0 0 0 0 0 0 0 0 0 0 0 0 0 0 0 0 0 0 0 0 0 0 0 0 0 0 0 0 0 0 0 0 0 0 0 0 0 0 0 0 0 0 0 0 0 0 0 0 0 0 0 0 0 0 0 0 0 0 0 0 0 0 0 0 0 0 0 0 0 0 0 0 0 0 0 0 0 0 0 0 0 0 0 0 0 0 0 0 0 0 0 0 0 0 0 0 0 0 0 0 0 0 0 0 0 0 0 0 0 0 0 0 0 0 0 0 0 0 0 0 0 0 0 0 0 0 0 0 0 0 0 0 0 0 0 0 0 0 0 0 0 0 0 0 0 0 0 0 0 0 0 0 0 0 0 0 0 0 0 0 0 0 0 0 0 0 0 0 0 0 0 0 0 0 0 0 0 0 0 0 0 0 0 0 0 0 0 0 0 0 0 0 0 0 0 0 0 0 0 0 0 0 0 0 0 0 0 0 0 0 0 0 0 0 0 0 0 0 0 0 0 0 0 0 0 0 0 0 0 0 0 0 0 0 0 0 0 0 0 0 0 0 0 0 0 0 0 0 0 0 0 0 0 0 0 0 0 0 0 0 0 0 0 0 0 0 0 0 0 0 0 0 0 0 0 0 0 0 0 0 0 0 0 0 0 0 0 0 0 0 0 0 0 0 0 0 0 0 0 0 0 0 0 0 0 0 0 0 0 0 0 0 0 0 0 0 0 0 0 0 0 0 0 0 0 0 0 0 0 0 0 0 0 0 0 0 0 0 0 0 0 0 0 0 0 0 0 0 0 0 0 0 0 0 0 0 0 0 0 0 0 0 0 0 0 0 0 0 0 0 0 0 0 0 0 0 0 0 0 0 0 0 0 0 0 0 0 0 0 0 0 0 0 0 0 0 0 0 0 0 0 0 0 0 0 0 0 0 0 0 0 0 0 0 0 0 0 0 0 0 0 0 0 0 0 0 0 0 0 0 0 0 0 0 0 0 0 0 0 0 0 0 0 0 0 0 0 0 0 0 0 0 0 0 0 0 0 0 0 0 0 0 0 0 0 0 0 0 0 0 0 0 0 0 0 0 0 0 0 0 0 0 0 0 0 0 0 0 0 0 0 0 0 0 0 0 0 0 0 0 0 0 0 0 0 0 0 0 0 0 0 0 0 0 0 0 0 0 0 0 0 0 0 0 0 0 0 0 0 0 0 0 0 0 0 0 0 0 0 0 0 0 0 0 0 0 0 0 0 0 0 0 0 0 0 0 0 0 0 0 0 0 0 0 0 0 0 0 0 0 0 0 0 0 0 0 0 0 0 0 0 0 0 0 0 0 0 0 0 0 0 0 0 0 0 0 0 0 0 0 0 0 0 0 0 0 0 0 0 0 0 0 0 0 0 0 0 0 0 0 0 0 0 0 0 0 0 0 0 0 0 0 0 0 0 0 0 0 0 0 0 0 0 0 0 0 0 0 0 0 0 0 0 0 0 0 0 0 0 0 0 0 0 0 0 0 0 0 0 0 0 0 0 0 0 0 0 0 0 0 0 0 0 0 0 0 0 0 0 0 0 0 0 0 0 0 0 0 0 0 0 0 0 0 0 0 0 0 0 0 0 0 0 0 0 0 0 0 0 0 0 0 0 0 0 0 0 0 0 0 0 0 0 0 0 0 0 0 0 0 0 0 0 0 0 0 0 0 0 0 0 0 0 0 0 0 0 0 0 0 0 0 0 0 0 0 0 0 0 0 0 0 0 0 0 0 0 0 0 0 0 0 0 0 0 0 0 0 0 0 0 0 0 0 0 0 0 0 0 0 0 0 0 0 0 0 0 0 0 0 0 0 0 0 0 0 0 0 0 0 0 0 0 0 0 0 0 0 0 0 0 0 0 0 0 0 0 0 0 0 0 0 0 0 0 0 0 0 0 0 0 0 0 0 0 0 0 0 0 0 0 0 0 0 0 0 0 0 0 0 0 0 0 0 0 0 0 0 0 0 0 0 0 0 0 0 0 0 0 0 0 0 0 0 0 0 0 0 0 0 0 0 0 0 0 0 0 0 0 0 0 0 0 0 0 0 0 0 0 0 0 0 0 0 0 0 0 0 0 0 0 0 0 0 0 0 0 0 0 0 0 0 0 0 0 0 0 0 0 0 0 0 0 0 0 0 0 0 0 0 0 0 0 0 0 0 0 0 0 0 0 0 0 0 0 0 0 0 0 0 0 0 0 0 0 0 0 0 0 0 0 0 0 0 0 0 0 0 0 0 0 0 0 0 0 0 0 0 0 0 0 0 0 0 0 0 0 0 0 0 0 0 0 0 0 0 0 0 0 0 0 0 0 0 0 0 0 0 0 0 0 0 0 0 0 0 0 0 0 0 0 0 0 0 0 0 0 0 0 0 0 0 0 0 0 0 0 0 0 0 0 0 0 0 0 0 0 0 0 0 0 0 0 0 0 0 0 0 0 0 0 0 0 0 0 0 0 0 0 0 0 0 0 0 0 0 0 0 0 0 0 0 0 0 0 0 0 0 0 0 0 0 0 0 0 0 0 0 0 0 0 0 0 0 0 0 0 0 0 0 0 0 0 0 0 0 0 0 0 0 0 0 0 0 0 0 0 0 0 0 0 0 0 0 0 0 0 0 0 0 0 0 0 0 0 0 0 0 0 0 0 0 0 0 0 0 0 0 0 0 0 0 0 0 0 0 0 0 0 0 0 0 0 0 0 0 0 0 0 0 0 0 0 0 0 0 0 0 0 0 0 0 0 0 0 0 0 0 0 0 0 0 0 0 0 0 0 0 0 0 0 0 0 0 0 0 0 0 0 0 0 0 0 0 0 0 0 0 0 0 0 0 0 0 0 0 0 0 0 0 0 0 0 0 0 0 0 0 0 0 0 0 0 0 0 0 0 0 0 0 0 0 0 0 0 0 0 0 0 0 0 0 0 0 0 0 0 0 0 0 0 0 0 0 0 0 0 0 0 0 0 0 0 0 0 0 0 0 0 0 0 0 0 0 0 0 0 0 0 0 0 0 0 0 0 0 0 0 0 0 0 0 0 0 0 0 0 0 0 0 0 0 0 0 0 0 0 0 0 0 0 0 0 0 0 0 0 0 0 0 0 0 0 0 0 0 0 0 0 0 0 0 0 0 0 0 0 0 0 0 0 0 0 0 0 0 0 0 0 0 0 0 0 0 0 0 0 0 0 0 0 0 0 0 0 0 0 0 0 0 0 0 0 0 0 0 0 0 0 0 0 0 0 0 0 0 0 0 0 0 0 0 0 0 0 0 0 0 0 0 0 0 0 0 0 0 0 0 0 0 0 0 0 0 0 0 0 0 0 0 0 0 0 0 0 0 0 0 0 0 0 0 0 0 0 0 0 0 0 0 0 0 0 0 0 0 0 0 0 0 0 0 0 0 0 0 0 0 0 0 0 0 0 0 0 0 0 0 0 0 0 0 0 0 0 0 0 0 0 0 0 0 0 0 0 0 0 0 0 0 0 0 0 0 0 0 0 0 0 0 0 0 0 0 0 0 0 0 0 0 0 0 0 0 0 0 0 0 0 0 0 0 0 0 0 0 0 0 0 0 0 0 0 0 0 0 0 0 0 0 0 0 0 0 0 0 0 0 0 0 0 0 0 0 0 0 0 0 0 0 0 0 0 0 0 0 0 0 0 0 0 0 0 0 0 0 0 0 0 0 0 0 0 0 0 0 0 0 0 0 0 0 0 0 0 0 0 0 0 0 0 0 0 0 0 0 0 0 0 0 0 0 0 0 0 0 0 0 0 0 0 0 0 0 0 0 0 0 0 0 0 0 0 0 0 0 0 0 0 0 0 0 0 0 0 0 0 0 0 0 0 0 0 0 0 0 0 0 0 0 0 0 0 0 0 0 0 0 0 0 0 0 0 0 0 0 0 0 0 0 0 0 0 0 0 0 0 0 0 0 0 0 0 0 0 0 0 0 0 0 0 0 0 0 0 0 0 0 0 0 0 0 0 0 0 0 0 0 0 0 0 0 0 0 0 0 0 0 0 0 0 0 0 0 0 0 0 0 0 0 0 0 0 0 0 0 0 0 0 0 0 0 0 0 0 0 0 0 0 0 0 0 0 0 0 0 0 0 0 0 0 0 0 0 0 0 0 0 0 0 0 0 0 0 0 0 0 0 0 0 0 0 0 0 0 0 0 0 0 0 0 0 0 0 0 0 0 0 0 0 0 0 0 0 0 0 0 0 0 0 0 0 0 0 0 0 0 0 0 0 0 0 0 0 0 0 0 0 0 0 0 0 0 0 0 0 0 0 0 0 0 0 0 0 0 0 0 0 0 0 0 0 0 0 0 0 0 0 0 0 0 0 0 0 0 0 0 0 0 0 0 0 0 0 0 0 0 0 0 0 0 0 0 0 0 0 0 0 0 0 0 0 0 0 0 0 0 0 0 0 0 0 0 0 0 0 0 0 0 0 0 0 0 0 0 0 0 0 0 0 0 0 0 0 0 0 0 0 0 0 0 0 0 0 0 0 0 0 0 0 0 0 0 0 0 0 0 0 0 0 0 0 0 0 0 0 0 0 0 0 0 0 0 0 0 0 0 0 0 0 0 0 0 0 0 0 0 0 0 0 0 0 0 0 0 0 0 0 0 0 0 0 0 0 0 0 0 0 0 0 0 0 0 0 0 0 0 0 0 0 0 0 0 0 0 0 0 0 0 0 0 0 0 0 0 0 0 0 0 0 0 0 0 0 0 0 0 0 0 0 0 0 0 0 0 0 0 0 0 0 0 0 0 0 0 0 0 0 0 0 0 0 0 0 0 0 0 0 0 0 0 0 0 0 0 0 0 0 0 0 0 0 0 0 0 0 0 0 0 0 0 0 0 0 0 0 0 0 0 0 0 0 0 0 0 0 0 0 0 0 0 0 0 0 0 0 0 0 0 0 0 0 0 0 0 0 0 0 0 0 0 0 0 0 0 0 0 0 0 0 0 0 0 0 0 0 0 0 0 0 0 0 0 0 0 0 0 0 0 0 0 0 0 0 0 0 0 0 0 0 0 0 0 0 0 0 0 0 0 0 0 0 0 0 0 0 0 0 0 0 0 0 0 0 0 0 0 0 0 0 0 0 0 0 0 0 0 0 0 0 0 0 0 0 0 0 0 0 0 0 0 0 0 0 0 0 0 0 0 0 0 0 0 0 0 0 0 0 0 0 0 0 0 0 0 0 0 0 0 0 0 0 0 0 0 0 0 0 0 0 0 0 0 0 0 0 0 0 0 0 0 0 0 0 0 0 0 0 0 0 0 0 0 0 0 0 0 0 0 0 0 0 0 0 0 0 0 0 0 0 0 0 0 0 0 0 0 0 0 0 0 0 0 0 0 0 0 0 0 0 0 0 0 0 0 0 0 0 0 0 0 0 0 0 0 0 0 0 0 0 0 0 0 0 0 0 0 0 0 0 0 0 0 0 0 0 0 0 0 0 0 0 0 0 0 0 0 0 0 0 0 0 0 0 0 0 0 0 0 0 0 0 0 0 0 0 0 0 0 0 0 0 0 0 0 0 0 0 0 0 0 0 0 0 0 0 0 0 0 0 0 0 0 0 0 0 0 0 0 0 0 0 0 0 0 0 0 0 0 0 0 0 0 0 0 0 0 0 0 0 0 0 0 0 0 0 0 0 0 0 0 0 0 0 0 0 0 0 0 0 0 0 0 0 0 0 0 0 0 0 0 0 0 0 0 0 0 0 0 0 0 0 0 0 0 0 0 0 0 0 0 0 0 0 0 0 0 0 0 0 0 0 0 0 0 0 0 0 0 0 0 0 0 0 0 0 0 0 0 0 0 0 0 0 0 0 0 0 0 0 0 0 0 0 0 0 0 0 0 0 0 0 0 0 0 0 0 0 0 0 0 0 0 0 0 0 0 0 0 0 0 0 0 0 0 0 0 0 0 0 0 0 0 0 0 0 0 0 0 0 0 0 0 0 0 0 0 0 0 0 0 0 0 0 0 0 0 0 0 0 0 0 0 0 0 0 0 0 0 0 0 0 0 0 0 0 0 0 0 0 0 0 0 0 0 0 0 0 0 0 0 0 0 0 0 0 0 0 0 0 0 0 0 0 0 0 0 0 0 0 0 0 0 0 0 0 0 0 0 0 0 0 0 0 0 0 0 0 0 0 0 0 0 0 0 0 0 0 0 0 0 0 0 0 0 0 0 0 0 0 0 0 0 0 0 0 0 0 0 0 0 0 0 0 0 0 0 0 0 0 0 0 0 0 0 0 0 0 0 0 0 0 0 0 0 0 0 0 0 0 0 0 0 0 0 0 0 0 0 0 0 0 0 0 0 0 0 0 0 0 0 0 0 0 0 0 0 0 0 0 0 0 0 0 0 0 0 0 0 0 0 0 0 0 0 0 0 0 0 0 0 0 0 0 0 0 0 0 0 0 0 0 0 0 0 0 0 0 0 0 0 0 0 0 0 0 0 0 0 0 0 0 0 0 0 0 0 0 0 0 0 0 0 0 0 0 0 0 0 0 0 0 0 0 0 0 0 0 0 0 0 0 0 0 0 0 0 0 0 0 0 0 0 0 0 0 0 0 0 0 0 0 0 0 0 0 0 0 0 0 0 0 0 0 0 0 0 0 0 0 0 0 0 0 0 0 0 0 0 0 0 0 0 0 0 0 0 0 0 0 0 0 0 0 0 0 0 0 0 0 0 0 0 0 0 0 0 0 0 0 0 0 0 0 0 0 0 0 0 0 0 0 0 0 0 0 0 0 0 0 0 0 0 0 0 0 0 0 0 0 0 0 0 0 0 0 0 0 0 0 0 0 0 0 0 0 0 0 0 0 0 0 0 0 0 0 0 0 0 0 0 0 0 0 0 0 0 0 0 0 0 0 0 0 0 0 0 0 0 0 0 0 0 0 0 0 0 0 0 0 0 0 0 0 0 0 0 0 0 0 0 0 0 0 0 0 0 0 0 0 0 0 0 0 0 0 0 0 0 0 0 0 0 0 0 0 0 0 0 0 0 0 0 0 0 0 0 0 0 0 0 0 0 0 0 0 0 0 0 0 0 0 0 0 0 0 0 0 0 0 0 0 0 0 0 0 0 0 0 0 0 0 0 0 0 0 0 0 0 0 0 0 0 0 0 0 0 0 0 0 0 0 0 0 0 0 0 0 0 0 0 0 0 0 0 0 0 0 0 0 0 0 0 0 0 0 0 0 0 0 0 0 0 0 0 0 0 0 0 0 0 0 0 0 0 0 0 0 0 0 0 0 0 0 0 0 0 0 0 0 0 0 0 0 0 0 0 0 0 0 0 0 0 0 0 0 0 0 0 0 0 0 0 0 0 0 0 0 0 0 0 0 0 0 0 0 0 0 0 0 0 0 0 0 0 0 0 0 0 0 0 0 0 0 0 0 0 0 0 0 0 0 0 0 0 0 0 0 0 0 0 0 0 0 0 0 0 0 0 0 0 0 0 0 0 0 0 0 0 0 0 0 0 0 0 0 0 0 0 0 0 0 0 0 0 0 0 0 0 0 0 0 0 0 0 0 0 0 0 0 0 0 0 0 0 0 0 0 0 0 0 0 0 0 0 0 0 0 0 0 0 0 0 0 0 0 0 0 0 0 0 0 0 0 0 0 0 0 0 0 0 0 0 0 0 0 0 0 0 0 0 0 0 0 0 0 0 0 0 0 0 0 0 0 0 0 0 0 0 0 0 0 0 0 0 0 0 0 0 0 0 0 0 0 0 0 0 0 0 0 0 0 0 0 0 0 0 0 0 0 0 0 0 0 0 0 0 0 0 0 0 0 0 0 0 0 0 0 0 0 0 0 0 0 0 0 0 0 0 0 0 0 0 0 0 0 0 0 0 0 0 0 0 0 0 0 0 0 0 0 0 0 0 0 0 0 0 0 0 0 0 0 0 0 0 0 0 0 0 0 0 0 0 0 0 0 0 0 0 0 0 0 0 0 0 0 0 0 0 0 0 0 0 0 0 0 0 0 0 0 0 0 0 0 0 0 0 0 0 0 0 0 0 0 0 0 0 0 0 0 0 0 0 0 0 0 0 0 0 0 0 0 0 0 0 0 0 0 0 0 0 0 0 0 0 0 0 0 0 0 0 0 0 0 0 0 0 0 0 0 0 0 0 0 0 0 0 0 0 0 0 0 0 0 0 0 0 0 0 0 0 0 0 0 0 0 0 0 0 0 0 0 0 0 0 0 0 0 0 0 0 0 0 0 0 0 0 0 0 0 0 0 0 0 0 0 0 0 0 0 0 0 0 0 0 0 0 0 0 0 0 0 0 0 0 0 0 0 0 0 0 0 0 0 0 0 0 0 0 0 0 0 0 0 0 0 0 0 0 0 0 0 0 0 0 0 0 0 0 0 0 0 0 0 0 0 0 0 0 0 0 0 0 0 0 0 0 0 0 0 0 0 0 0 0 0 0 0 0 0 0 0 0 0 0 0 0 0 0 0 0 0 0 0 0 0 0 0 0 0 0 0 0 0 0 0 0 0 0 0 0 0 0 0 0 0 0 0 0 0 0 0 0 0 0 0 0 0 0 0 0 0 0 0 0 0 0 0 0 0 0 0 0 0 0 0 0 0 0 0 0 0 0 0 0 0 0 0 0 0 0 0 0 0 0 0 0 0 0 0 0 0 0 0 0 0 0 0 0 0 0 0 0 0 0 0 0 0 0 0 0 0 0 0 0 0 0 0 0 0 0 0 0 0 0 0 0 0 0 0 0 0 0 0 0 0 0 0 0 0 0 0 0 0 0 0 0 0 0 0 0 0 0 0 0 0 0 0 0 0 0 0 0 0 0 0 0 0 0 0 0 0 0 0 0 0 0 0 0 0 0 0 0 0 0 0 0 0 0 0 0 0 0 0 0 0 0 0 0 0 0 0 0 0 0 0 0 0 0 0 0 0 0 0 0 0 0 0 0 0 0 0 0 0 0 0 0 0 0 0 0 0 0 0 0 0 0 0 0 0 0 0 0 0 0 0 0 0 0 0 0 0 0 0 0 0 0 0 0 0 0 0 0 0 0 0 0 0 0 0 0 0 0 0 0 0 0 0 0 0 0 0 0 0 0 0 0 0 0 0 0 0 0 0 0 0 0 0 0 0 0 0 0 0 0 0 0 0 0 0 0 0 0 0 0 0 0 0 0 0 0 0 0 0 0 0 0 0 0 0 0 0 0 0 0 0 0 0 0 0 0 0 0 0 0 0 0 0 0 0 0 0 0 0 0 0 0 0 0 0 0 0 0 0 0 0 0 0 0 0 0 0 0 0 0 0 0 0 0 0 0 0 0 0 0 0 0 0 0 0 0 0 0 0 0 0 0 0 0 0 0 0 0 0 0 0 0 0 0 0 0 0 0 0 0 0 0 0 0 0 0 0 0 0 0 0 0 0 0 0 0 0 0 0 0 0 0 0 0 0 0 0 0 0 0 0 0 0 0 0 0 0 0 0 0 0 0 0 0 0 0 0 0 0 0 0 0 0 0 0 0 0 0 0 0 0 0 0 0 0 0 0 0 0 0 0 0 0 0 0 0 0 0 0 0 0 0 0 0 0 0 0 0 0 0 0 0 0 0 0 0 0 0 0 0 0 0 0 0 0 0 0 0 0 0 0 0 0 0 0 0 0 0 0 0 0 0 0 0 0 0 0 0 0 0 0 0 0 0 0 0 0 0 0 0 0 0 0 0 0 0 0 0 0 0 0 0 0 0 0 0 0 0 0 0 0 0 0 0 0 0 0 0 0 0 0 0 0 0 0 0 0 0 0 0 0 0 0 0 0 0 0 0 0 0 0 0 0 0 0 0 0 0 0 0 0 0 0 0 0 0 0 0 0 0 0 0 0 0 0 0 0 0 0 0 0 0 0 0 0 0 0 0 0 0 0 0 0 0 0 0 0 0 0 0 0 0 0 0 0 0 0 0 0 0 0 0 0 0 0 0 0 0 0 0 0 0 0 0 0 0 0 0 0 0 0 0 0 0 0 0 0 0 0 0 0 0 0 0 0 0 0 0 0 0 0 0 0 0 0 0 0 0 0 0 0 0 0 0 0 0 0 0 0 0 0 0 0 0 0 0 0 0 0 0 0 0 0 0 0 0 0 0 0 0 0 0 0 0 0 0 0 0 0 0 0 0 0 0 0 0 0 0 0 0 0 0 0 0 0 0 0 0 0 0 0 0 0 0 0 0 0 0 0 0 0 0 0 0 0 0 0 0 0 0 0 0 0 0 0 0 0 0 0 0 0 0 0 0 0 0 0 0 0 0 0 0 0 0 0 0 0 0 0 0 0 0 0 0 0 0 0 0 0 0 0 0 0 0 0 0 0 0 0 0 0 0 0 0 0 0 0 0 0 0 0 0 0 0 0 0 0 0 0 0 0 0 0 0 0 0 0 0 0 0 0 0 0 0 0 0 0 0 0 0 0 0 0 0 0 0 0 0 0 0 0 0 0 0 0 0 0 0 0 0 0 0 0 0 0 0 0 0 0 0 0 0 0 0 0 0 0 0 0 0 0 0 0 0 0 0 0 0 0 0 0 0 0 0 0 0 0 0 0 0 0 0 0 0 0 0 0 0 0 0 0 0 0 0 0 0 0 0 0 0 0 0 0 0 0 0 0 0 0 0 0 0 0 0 0 0 0 0 0 0 0 0 0 0 0 0 0 0 0 0 0 0 0 0 0 0 0 0 0 0 0 0 0 0 0 0 0 0 0 0 0 0 0 0 0 0 0 0 0 0 0 0 0 0 0 0 0 0 0 0 0 0 0 0 0 0 0 0 0 0 0 0 0 0 0 0 0 0 0 0 0 0 0 0 0 0 0 0 0 0 0 0 0 0 0 0 0 0 0 0 0 0 0 0 0 0 0 0 0 0 0 0 0 0 0 0 0 0 0 0 0 0 0 0 0 0 0 0 0 0 0 0 0 0 0 0 0 0 0 0 0 0 0 0 0 0 0 0 0 0 0 0 0 0 0 0 0 0 0 0 0 0 0 0 0 0 0 0 0 0 0 0 0 0 0 0 0 0 0 0 0 0 0 0 0 0 0 0 0 0 0 0 0 0 0 0 0 0 0 0 0 0 0 0 0 0 0 0 0 0 0 0 0 0 0 0 0 0 0 0 0 0 0 0 0 0 0 0 0 0 0 0 0 0 0 0 0 0 0 0 0 0 0 0 0 0 0 0 0 0 0 0 0 0 0 0 0 0 0 0 0 0 0 0 0 0 0 0 0 0 0 0 0 0 0 0 0 0 0 0 0 0 0 0 0 0 0 0 0 0 0 0 0 0 0 0 0 0 0 0 0 0 0 0 0 0 0 0 0 0 0 0 0 0 0 0 0 0 0 0 0 0 0 0 0 0 0 0 0 0 0 0 0 0 0 0 0 0 0 0 0 0 0 0 0 0 0 0 0 0 0 0 0 0 0 0 0 0 0 0 0 0 0 0 0 0 0 0 0 0 0 0 0 0 0 0 0 0 0 0 0 0 0 0 0 0 0 0 0 0 0 0 0 0 0 0 0 0 0 0 0 0 0 0 0 0 0 0 0 0 0 0 0 0 0 0 0 0 0 0 0 0 0 0 0 0 0 0 0 0 0 0 0 0 0 0 0 0 0 0 0 0 0 0 0 0 0 0 0 0 0 0 0 0 0 0 0 0 0 0 0 0 0 0 0 0 0 0 0 0 0 0 0 0 0 0 0 0 0 0 0 0 0 0 0 0 0 0 0 0 0 0 0 0 0 0 0 0 0 0 0 0 0 0 0 0 0 0 0 0 0 0 0 0 0 0 0 0 0 0 0 0 0 0 0 0 0 0 0 0 0 0 0 0 0 0 0 0 0 0 0 0 0 0 0 0 0 0 0 0 0 0 0 0 0 0 0 0 0 0 0 0 0 0 0 0 0 0 0 0 0 0 0 0 0 0 0 0 0 0 0 0 0 0 0 0 0 0 0 0 0 0 0 0 0 0 0 0 0 0 0 0 0 0 0 0 0 0 0 0 0 0 0 0 0 0 0 0 0 0 0 0 0 0 0 0 0 0 0 0 0 0 0 0 0 0 0 0 0 0 0 0 0 0 0 0 0 0 0 0 0 0 0 0 0 0 0 0 0 0 0 0 0 0 0 0 0 0 0 0 0 0 0 0 0 0 0 0 0 0 0 0 0 0 0 0 0 0 0 0 0 0 0 0 0 0 0 0 0 0 0 0 0 0 0 0 0 0 0 0 0 0 0 0 0 0 0 0 0 0 0 0 0 0 0 0 0 0 0 0 0 0 0 0 0 0 0 0 0 0 0 0 0 0 0 0 0 0 0 0 0 0 0 0 0 0 0 0 0 0 0 0 0 0 0 0 0 0 0 0 0 0 0 0 0 0 0 0 0 0 0 0 0 0 0 0 0 0 0 0 0 0 0 0 0 0 0 0 0 0 0 0 0 0 0 0 0 0 0 0 0 0 0 0 0 0 0 0 0 0 0 0 0 0 0 0 0 0 0 0 0 0 0 0 0 0 0 0 0 0 0 0 0 0 0 0 0 0 0 0 0 0 0 0 0 0 0 0 0 0 0 0 0 0 0 0 0 0 0 0 0 0 0 0 0 0 0 0 0 0 0 0 0 0 0 0 0 0 0 0 0 0 0 0 0 0 0 0 0 0 0 0 0 0 0 0 0 0 0 0 0 0 0 0 0 0 0 0 0 0 0 0 0 0 0 0 0 0 0 0 0 0 0 0 0 0 0 0 0 0 0 0 0 0 0 0 0 0 0 0 0 0 0 0 0 0 0 0 0 0 0 0 0 0 0 0 0 0 0 0 0 0 0 0 0 0 0 0 0 0 0 0 0 0 0 0 0 0 0 0 0 0 0 0 0 0 0 0 0 0 0 0 0 0 0 0 0 0 0 0 0 0 0 0 0 0 0 0 0 0 0 0 0 0 0 0 0 0 0 0 0 0 0 0 0 0 0 0 0 0 0 0 0 0 0 0 0 0 0 0 0 0 0 0 0 0 0 0 0 0 0 0 0 0 0 0 0 0 0 0 0 0 0 0 0 0 0 0 0 0 0 0 0 0 0 0 0 0 0 0 0 0 0 0 0 0 0 0 0 0 0 0 0 0 0 0 0 0 0 0 0 0 0 0 0 0 0 0 0 0 0 0 0 0 0 0 0 0 0 0 0 0 0 0 0 0 0 0 0 0 0 0 0 0 0 0 0 0 0 0 0 0 0 0 0 0 0 0 0 0 0 0 0 0 0 0 0 0 0 0 0 0 0 0 0 0 0 0 0 0 0 0 0 0 0 0 0 0 0 0 0 0 0 0 0 0 0 0 0 0 0 0 0 0 0 0 0 0 0 0 0 0 0 0 0 0 0 0 0 0 0 0 0 0 0 0 0 0 0 0 0 0 0 0 0 0 0 0 0 0 0 0 0 0 0 0 0 0 0 0 0 0 0 0 0 0 0 0 0 0 0 0 0 0 0 0 0 0 0 0 0 0 0 0 0 0 0 0 0 0 0 0 0 0 0 0 0 0 0 0 0 0 0 0 0 0 0 0 0 0 0 0 0 0 0 0 0 0 0 0 0 0 0 0 0 0 0 0 0 0 0 0 0 0 0 0 0 0 0 0 0 0 0 0 0 0 0 0 0 0 0 0 0 0 0 0 0 0 0 0 0 0 0 0 0 0 0 0 0 0 0 0 0 0 0 0 0 0 0 0 0 0 0 0 0 0 0 0 0 0 0 0 0 0 0 0 0 0 0 0 0 0 0 0 0 0 0 0 0 0 0 0 0 0 0 0 0 0 0 0 0 0 0 0 0 0 0 0 0 0 0 0 0 0 0 0 0 0 0 0 0 0 0 0 0 0 0 0 0 0 0 0 0 0 0 0 0 0 0 0 0 0 0 0 0 0 0 0 0 0 0 0 0 0 0 0 0 0 0 0 0 0 0 0 0 0 0 0 0 0 0 0 0 0 0 0 0 0 0 0 0 0 0 0 0 0 0 0 0 0 0 0 0 0 0 0 0 0 0 0 0 0 0 0 0 0 0 0 0 0 0 0 0 0 0 0 0 0 0 0 0 0 0 0 0 0 0 0 0 0 0 0 0 0 0 0 0 0 0 0 0 0 0 0 0 0 0 0 0 0 0 0 0 0 0 0 0 0 0 0 0 0 0 0 0 0 0 0 0 0 0 0 0 0 0 0 0 0 0 0 0 0 0 0 0 0 0 0 0 0 0 0 0 0 0 0 0 0 0 0 0 0 0 0 0 0 0 0 0 0 0 0 0 0 0 0 0 0 0 0 0 0 0 0 0 0 0 0 0 0 0 0 0 0 0 0 0 0 0 0 0 0 0 0 0 0 0 0 0 0 0 0 0 0 0 0 0 0 0 0 0 0 0 0 0 0 0 0 0 0 0 0 0 0 0 0 0 0 0 0 0 0 0 0 0 0 0 0 0 0 0 0 0 0 0 0 0 0 0 0 0 0 0 0 0 0 0 0 0 0 0 0 0 0 0 0 0 0 0 0 0 0 0 0 0 0 0 0 0 0 0 0 0 0 0 0 0 0 0 0 0 0 0 0 0 0 0 0 0 0 0 0 0 0 0 0 0 0 0 0 0 0 0 0 0 0 0 0 0 0 0 0 0 0 0 0 0 0 0 0 0 0 0 0 0 0 0 0 0 0 0 0 0 0 0 0 0 0 0 0 0 0 0 0 0 0 0 0 0 0 0 0 0 0 0 0 0 0 0 0 0 0 0 0 0 0 0 0 0 0 0 0 0 0 0 0 0 0 0 0 0 0 0 0 0 0 0 0 0 0 0 0 0 0 0 0 0 0 0 0 0 0 0 0 0 0 0 0 0 0 0 0 0 0 0 0 0 0 0 0 0 0 0 0 0 0 0 0 0 0 0 0 0 0 0 0 0 0 0 0 0 0 0 0 0 0 0 0 0 0 0 0 0 0 0 0 0 0 0 0 0 0 0 0 0 0 0 0 0 0 0 0 0 0 0 0 0 0 0 0 0 0 0 0 0 0 0 0 0 0 0 0 0 0 0 0 0 0 0 0 0 0 0 0 0 0 0 0 0 0 0 0 0 0 0 0 0 0 0 0 0 0 0 0 0 0 0 0 0 0 0 0 0 0 0 0 0 0 0 0 0 0 0 0 0 0 0 0 0 0 0 0 0 0 0 0 0 0 0 0 0 0 0 0 0 0 0 0 0 0 0 0 0 0 0 0 0 0 0 0 0 0 0 0 0 0 0 0 0 0 0 0 0 0 0 0 0 0 0 0 0 0 0 0 0 0 0 0 0 0 0 0 0 0 0 0 0 0 0 0 0 0 0 0 0 0 0 0 0 0 0 0 0 0 0 0 0 0 0 0 0 0 0 0 0 0 0 0 0 0 0 0 0 0 0 0 0 0 0 0 0 0 0 0 0 0 0 0 0 0 0 0 0 0 0 0 0 0 0 0 0 0 0 0 0 0 0 0 0 0 0 0 0 0 0 0 0 0 0 0 0 0 0 0 0 0 0 0 0 0 0 0 0 0 0 0 0 0 0 0 0 0 0 0 0 0 0 0 0 0 0 0 0 0 0 0 0 0 0 0 0 0 0 0 0 0 0 0 0 0 0 0 0 0 0 0 0 0 0 0 0 0 0 0 0 0 0 0 0 0 0 0 0 0 0 0 0 0 0 0 0 0 0 0 0 0 0 0 0 0 0 0 0 0 0 0 0 0 0 0 0 0 0 0 0 0 0 0 0 0 0 0 0 0 0 0 0 0 0 0 0 0 0 0 0 0 0 0 0 0 0 0 0 0 0 0 0 0 0 0 0 0 0 0 0 0 0 0 0 0 0 0 0 0 0 0 0 0 0 0 0 0 0 0 0 0 0 0 0 0 0 0 0 0 0 0 0 0 0 0 0 0 0 0 0 0 0 0 0 0 0 0 0 0 0 0 0 0 0 0 0 0 0 0 0 0 0 0 0 0 0 0 0 0 0 0 0 0 0 0 0 0 0 0 0 0 0 0 0 0 0 0 0 0 0 0 0 0 0 0 0 0 0 0 0 0 0 0 0 0 0 0 0 0 0 0 0 0 0 0 0 0 0 0 0 0 0 0 0 0 0 0 0 0 0 0 0 0 0 0 0 0 0 0 0 0 0 0 0 0 0 0 0 0 0 0 0 0 0 0 0 0 0 0 0 0 0 0 0 0 0 0 0 0 0 0 0 0 0 0 0 0 0 0 0 0 0 0 0 0 0 0 0 0 0 0 0 0 0 0 0 0 0 0 0 0 0 0 0 0 0 0 0 0 0 0 0 0 0 0 0 0 0 0 0 0 0 0 0 0 0 0 0 0 0 0 0 0 0 0 0 0 0 0 0 0 0 0 0 0 0 0 0 0 0 0 0 0 0 0 0 0 0 0 0 0 0 0 0 0 0 0 0 0 0 0 0 0 0 0 0 0 0 0 0 0 0 0 0 0 0 0 0 0 0 0 0 0 0 0 0 0 0 0 0 0 0 0 0 0 0 0 0 0 0 0 0 0 0 0 0 0 0 0 0 0 0 0 0 0 0 0 0 0 0 0 0 0 0 0 0 0 0 0 0 0 0 0 0 0 0 0 0 0 0 0 0 0 0 0 0 0 0 0 0 0 0 0 0 0 0 0 0 0 0 0 0 0 0 0 0 0 0 0 0 0 0 0 0 0 0 0 0 0 0 0 0 0 0 0 0 0 0 0 0 0 0 0 0 0 0 0 0 0 0 0 0 0 0 0 0 0 0 0 0 0 0 0 0 0 0 0 0 0 0 0 0 0 0 0 0 0 0 0 0 0 0 0 0 0 0 0 0 0 0 0 0 0 0 0 0 0 0 0 0 0 0 0 0 0 0 0 0 0 0 0 0 0 0 0 0 0 0 0 0 0 0 0 0 0 0 0 0 0 0 0 0 0 0 0 0 0 0 0 0 0 0 0 0 0 0 0 0 0 0 0 0 0 0 0 0 0 0 0 0 0 0 0 0 0 0 0 0 0 0 0 0 0 0 0 0 0 0 0 0 0 0 0 0 0 0 0 0 0 0 0 0 0 0 0 0 0 0 0 0 0 0 0 0 0 0 0 0 0 0 0 0 0 0 0 0 0 0 0 0 0 0 0 0 0 0 0 0 0 0 0 0 0 0 0 0 0 0 0 0 0 0 0 0 0 0 0 0 0 0 0 0 0 0 0 0 0 0 0 0 0 0 0 0 0 0 0 0 0 0 0 0 0 0 0 0 0 0 0 0 0 0 0 0 0 0 0 0 0 0 0 0 0 0 0 0 0 0 0 0 0 0 0 0 0 0 0 0 0 0 0 0 0 0 0 0 0 0 0 0 0 0 0 0 0 0 0 0 0 0 0 0 0 0 0 0 0 0 0 0 0 0 0 0 0 0 0 0 0 0 0 0 0 0 0 0 0 0 0 0 0 0 0 0 0 0 0 0 0 0 0 0 0 0 0 0 0 0 0 0 0 0 0 0 0 0 0 0 0 0 0 0 0 0 0 0 0 0 0 0 0 0 0 0 0 0 0 0 0 0 0 0 0 0 0 0 0 0 0 0 0 0 0 0 0 0 0 0 0 0 0 0 0 0 0 0 0 0 0 0 0 0 0 0 0 0 0 0 0 0 0 0 0 0 0 0 0 0 0 0 0 0 0 0 0 0 0 0 0 0 0 0 0 0 0 0 0 0 0 0 0 0 0 0 0 0 0 0 0 0 0 0 0 0 0 0 0 0 0 0 0 0 0 0 0 0 0 0 0 0 0 0 0 0 0 0 0 0 0 0 0 0 0 0 0 0 0 0 0 0 0 0 0 0 0 0 0 0 0 0 0 0 0 0 0 0 0 0 0 0 0 0 0 0 0 0 0 0 0 0 0 0 0 0 0 0 0 0 0 0 0 0 0 0 0 0 0 0 0 0 0 0 0 0 0 0 0 0 0 0 0 0 0 0 0 0 0 0 0 0 0 0 0 0 0 0 0 0 0 0 0 0 0 0 0 0 0 0 0 0 0 0 0 0 0 0 0 0 0 0 0 0 0 0 0 0 0 0 0 0 0 0 0 0 0 0 0 0 0 0 0 0 0 0 0 0 0 0 0 0 0 0 0 0 0 0 0 0 0 0 0 0 0 0 0 0 0 0 0 0 0 0 0 0 0 0 0 0 0 0 0 0 0 0 0 0 0 0 0 0 0 0 0 0 0 0 0 0 0 0 0 0 0 0 0 0 0 0 0 0 0 0 0 0 0 0 0 0 0 0 0 0 0 0 0 0 0 0 0 0 0 0 0 0 0 0 0 0 0 0 0 0 0 0 0 0 0 0 0 0 0 0 0 0 0 0 0 0 0 0 0 0 0 0 0 0 0 0 0 0 0 0 0 0 0 0 0 0 0 0 0 0 0 0 0 0 0 0 0 0 0 0 0 0 0 0 0 0 0 0 0 0 0 0 0 0 0 0 0 0 0 0 0 0 0 0 0 0 0 0 0 0 0 0 0 0 0 0 0 0 0 0 0 0 0 0 0 0 0 0 0 0 0 0 0 0 0 0 0 0 0 0 0 0 0 0 0 0 0 0 0 0 0 0 0 0 0 0 0 0 0 0 0 0 0 0 0 0 0 0 0 0 0 0 0 0 0 0 0 0 0 0 0 0 0 0 0 0 0 0 0 0 0 0 0 0 0 0 0 0 0 0 0 0 0 0 0 0 0 0 0 0 0 0 0 0 0 0 0 0 0 0 0 0 0 0 0 0 0 0 0 0 0 0 0 0 0 0 0 0 0 0 0 0 0 0 0 0 0 0 0 0 0 0 0 0 0 0 0 0 0 0 0 0 0 0 0 0 0 0 0 0 0 0 0 0 0 0 0 0 0 0 0 0 0 0 0 0 0 0 0 0 0 0 0 0 0 0 0 0 0 0 0 0 0 0 0 0 0 0 0 0 0 0 0 0 0 0 0 0 0 0 0 0 0 0 0 0 0 0 0 0 0 0 0 0 0 0 0 0 0 0 0 0 0 0 0 0 0 0 0 0 0 0 0 0 0 0 0 0 0 0 0 0 0 0 0 0 0 0 0 0 0 0 0 0 0 0 0 0 0 0 0 0 0 0 0 0 0 0 0 0 0 0 0 0 0 0 0 0 0 0 0 0 0 0 0 0 0 0 0 0 0 0 0 0 0 0 0 0 0 0 0 0 0 0 0 0 0 0 0 0 0 0 0 0 0 0 0 0 0 0 0 0 0 0 0 0 0 0 0 0 0 0 0 0 0 0 0 0 0 0 0 0 0 0 0 0 0 0 0 0 0 0 0 0 0 0 0 0 0 0 0 0 0 0 0 0 0 0 0 0 0 0 0 0 0 0 0 0 0 0 0 0 0 0 0 0 0 0 0 0 0 0 0 0 0 0 0 0 0 0 0 0 0 0 0 0 0 0 0 0 0 0 0 0 0 0 0 0 0 0 0 0 0 0 0 0 0 0 0 0 0 0 0 0 0 0 0 0 0 0 0 0 0 0 0 0 0 0 0 0 0 0 0 0 0 0 0 0 0 0 0 0 0 0 0 0 0 0 0 0 0 0 0 0 0 0 0 0 0 0 0 0 0 0 0 0 0 0 0 0 0 0 0 0 0 0 0 0 0 0 0 0 0 0 0 0 0 0 0 0 0 0 0 0 0 0 0 0 0 0 0 0 0 0 0 0 0 0 0 0 0 0 0 0 0 0 0 0 0 0 0 0 0 0 0 0 0 0 0 0 0 0 0 0 0 0 0 0 0 0 0 0 0 0 0 0 0 0 0 0 0 0 0 0 0 0 0 0 0 0 0 0 0 0 0 0 0 0 0 0 0 0 0 0 0 0 0 0 0 0 0 0 0 0 0 0 0 0 0 0 0 0 0 0 0 0 0 0 0 0 0 0 0 0 0 0 0 0 0 0 0 0 0 0 0 0 0 0 0 0 0 0 0 0 0 0 0 0 0 0 0 0 0 0 0 0 0 0 0 0 0 0 0 0 0 0 0 0 0 0 0 0 0 0 0 0 0 0 0 0 0 0 0 0 0 0 0 0 0 0 0 0 0 0 0 0 0 0 0 0 0 0 0 0 0 0 0 0 0 0 0 0 0 0 0 0 0 0 0 0 0 0 0 0 0 0 0 0 0 0 0 0 0 0 0 0 0 0 0 0 0 0 0 0 0 0 0 0 0 0 0 0 0 0 0 0 0 0 0 0 0 0 0 0 0 0 0 0 0 0 0 0 0 0 0 0 0 0 0 0 0 0 0 0 0 0 0 0 0 0 0 0 0 0 0 0 0 0 0 0 0 0 0 0 0 0 0 0 0 0 0 0 0 0 0 0 0 0 0 0 0 0 0 0 0 0 0 0 0 0 0 0 0 0 0 0 0 0 0 0 0 0 0 0 0 0 0 0 0 0 0 0 0 0 0 0 0 0 0 0 0 0 0 0 0 0 0 0 0 0 0 0 0 0 0 0 0 0 0 0 0 0 0 0 0 0 0 0 0 0 0 0 0 0 0 0 0 0 0 0 0 0 0 0 0 0 0 0 0 0 0 0 0 0 0 0 0 0 0 0 0 0 0 0 0 0 0 0 0 0 0 0 0 0 0 0 0 0 0 0 0 0 0 0 0 0 0 0 0 0 0 0 0 0 0 0 0 0 0 0 0 0 0 0 0 0 0 0 0 0 0 0 0 0 0 0 0 0 0 0 0 0 0 0 0 0 0 0 0 0 0 0 0 0 0 0 0 0 0 0 0 0 0 0 0 0 0 0 0 0 0 0 0 0 0 0 0 0 0 0 0 0 0 0 0 0 0 0 0 0 0 0 0 0 0 0 0 0 0 0 0 0 0 0 0 0 0 0 0 0 0 0 0 0 0 0 0 0 0 0 0 0 0 0 0 0 0 0 0 0 0 0 0 0 0 0 0 0 0 0 0 0 0 0 0 0 0 0 0 0 0 0 0 0 0 0 0 0 0 0 0 0 0 0 0 0 0 0 0 0 0 0 0 0 0 0 0 0 0 0 0 0 0 0 0 0 0 0 0 0 0 0 0 0 0 0 0 0 0 0 0 0 0 0 0 0 0 0 0 0 0 0 0 0 0 0 0 0 0 0 0 0 0 0 0 0 0 0 0 0 0 0 0 0 0 0 0 0 0 0 0 0 0 0 0 0 0 0 0 0 0 0 0 0 0 0 0 0 0 0 0 0 0 0 0 0 0 0 0 0 0 0 0 0 0 0 0 0 0 0 0 0 0 0 0 0 0 0 0 0 0 0 0 0 0 0 0 0 0 0 0 0 0 0 0 0 0 0 0 0 0 0 0 0 0 0 0 0 0 0 0 0 0 0 0 0 0 0 0 0 0 0 0 0 0 0 0 0 0 0 0 0 0 0 0 0 0 0 0 0 0 0 0 0 0 0 0 0 0 0 0 0 0 0 0 0 0 0 0 0 0 0 0 0 0 0 0 0 0 0 0 0 0 0 0 0 0 0 0 0 0 0 0 0 0 0 0 0 0 0 0 0 0 0 0 0 0 0 0 0 0 0 0 0 0 0 0 0 0 0 0 0 0 0 0 0 0 0 0 0 0 0 0 0 0 0 0 0 0 0 0 0 0 0 0 0 0 0 0 0 0 0 0 0 0 0 0 0 0 0 0 0 0 0 0 0 0 0 0 0 0 0 0 0 0 0 0 0 0 0 0 0 0 0 0 0 0 0 0 0 0 0 0 0 0 0 0 0 0 0 0 0 0 0 0 0 0 0 0 0 0 0 0 0 0 0 0 0 0 0 0 0 0 0 0 0 0 0 0 0 0 0 0 0 0 0 0 0 0 0 0 0 0 0 0 0 0 0 0 0 0 0 0 0 0 0 0 0 0 0 0 0 0 0 0 0 0 0 0 0 0 0 0 0 0 0 0 0 0 0 0 0 0 0 0 0 0 0 0 0 0 0 0 0 0 0 0 0 0 0 0 0 0 0 0 0 0 0 0 0 0 0 0 0 0 0 0 0 0 0 0 0 0 0 0 0 0 0 0 0 0 0 0 0 0 0 0 0 0 0 0 0 0 0 0 0 0 0 0 0 0 0 0 0 0 0 0 0 0 0 0 0 0 0 0 0 0 0 0 0 0 0 0 0 0 0 0 0 0 0 0 0 0 0 0 0 0 0 0 0 0 0 0 0 0 0 0 0 0 0 0 0 0 0 0 0 0 0 0 0 0 0 0 0 0 0 0 0 0 0 0 0 0 0 0 0 0 0 0 0 0 0 0 0 0 0 0 0 0 0 0 0 0 0 0 0 0 0 0 0 0 0 0 0 0 0 0 0 0 0 0 0 0 0 0 0 0 0 0 0 0 0 0 0 0 0 0 0 0 0 0 0 0 0 0 0 0 0 0 0 0 0 0 0 0 0 0 0 0 0 0 0 0 0 0 0 0 0 0 0 0 0 0 0 0 0 0 0 0 0 0 0 0 0 0 0 0 0 0 0 0 0 0 0 0 0 0 0 0 0 0 0 0 0 0 0 0 0 0 0 0 0 0 0 0 0 0 0 0 0 0 0 0 0 0 0 0 0 0 0 0 0 0 0 0 0 0 0 0 0 0 0 0 0 0 0 0 0 0 0 0 0 0 0 0 0 0 0 0 0 0 0 0 0 0 0 0 0 0 0 0 0 0 0 0 0 0 0 0 0 0 0 0 0 0 0 0 0 0 0 0 0 0 0 0 0 0 0 0 0 0 0 0 0 0 0 0 0 0 0 0 0 0 0 0 0 0 0 0 0 0 0 0 0 0 0 0 0 0 0 0 0 0 0 0 0 0 0 0 0 0 0 0 0 0 0 0 0 0 0 0 0 0 0 0 0 0 0 0 0 0 0 0 0 0 0 0 0 0 0 0 0 0 0 0 0 0 0 0 0 0 0 0 0 0 0 0 0 0 0 0 0 0 0 0 0 0 0 0 0 0 0 0 0 0 0 0 0 0 0 0 0 0 0 0 0 0 0 0 0 0 0 0 0 0 0 0 0 0 0 0 0 0 0 0 0 0 0 0 0 0 0 0 0 0 0 0 0 0 0 0 0 0 0 0 0 0 0 0 0 0 0 0 0 0 0 0 0 0 0 0 0 0 0 0 0 0 0 0 0 0 0 0 0 0 0 0 0 0 0 0 0 0 0 0 0 0 0 0 0 0 0 0 0 0 0 0 0 0 0 0 0 0 0 0 0 0 0 0 0 0 0 0 0 0 0 0 0 0 0 0 0 0 0 0 0 0 0 0 0 0 0 0 0 0 0 0 0 0 0 0 0 0 0 0 0 0 0 0 0 0 0 0 0 0 0 0 0 0 0 0 0 0 0 0 0 0 0 0 0 0 0 0 0 0 0 0 0 0 0 0 0 0 0 0 0 0 0 0 0 0 0 0 0 0 0 0 0 0 0 0 0 0 0 0 0 0 0 0 0 0 0 0 0 0 0 0 0 0 0 0 0 0 0 0 0 0 0 0 0 0 0 0 0 0 0 0 0 0 0 0 0 0 0 0 0 0 0 0 0 0 0 0 0 0 0 0 0 0 0 0 0 0 0 0 0 0 0 0 0 0 0 0 0 0 0 0 0 0 0 0 0 0 0 0 0 0 0 0 0 0 0 0 0 0 0 0 0 0 0 0 0 0 0 0 0 0 0 0 0 0 0 0 0 0 0 0 0 0 0 0 0 0 0 0 0 0 0 0 0 0 0 0 0 0 0 0 0 0 0 0 0 0 0 0 0 0 0 0 0 0 0 0 0 0 0 0 0 0 0 0 0 0 0 0 0 0 0 0 0 0 0 0 0 0 0 0 0 0 0 0 0 0 0 0 0 0 0 0 0 0 0 0 0 0 0 0 0 0 0 0 0 0 0 0 0 0 0 0 0 0 0 0 0 0 0 0 0 0 0 0 0 0 0 0 0 0 0 0 0 0 0 0 0 0 0 0 0 0 0 0 0 0 0 0 0 0 0 0 0 0 0 0 0 0 0 0 0 0 0 0 0 0 0 0 0 0 0 0 0 0 0 0 0 0 0 0 0 0 0 0 0 0 0 0 0 0 0 0 0 0 0 0 0 0 0 0 0 0 0 0 0 0 0 0 0 0 0 0 0 0 0 0 0 0 0 0 0 0 0 0 0 0 0 0 0 0 0 0 0 0 0 0 0 0 0 0 0 0 0 0 0 0 0 0 0 0 0 0 0 0 0 0 0 0 0 0 0 0 0 0 0 0 0 0 0 0 0 0 0 0 0 0 0 0 0 0 0 0 0 0 0 0 0 0 0 0 0 0 0 0 0 0 0 0 0 0 0 0 0 0 0 0 0 0 0 0 0 0 0 0 0 0 0 0 0 0 0 0 0 0 0 0 0 0 0 0 0 0 0 0 0 0 0 0 0 0 0 0 0 0 0 0 0 0 0 0 0 0 0 0 0 0 0 0 0 0 0 0 0 0 0 0 0 0 0 0 0 0 0 0 0 0 0 0 0 0 0 0 0 0 0 0 0 0 0 0 0 0 0 0 0 0 0 0 0 0 0 0 0 0 0 0 0 0 0 0 0 0 0 0 0 0 0 0 0 0 0 0 0 0 0 0 0 0 0 0 0 0 0 0 0 0 0 0 0 0 0 0 0 0 0 0 0 0 0 0 0 0 0 0 0 0 0 0 0 0 0 0 0 0 0 0 0 0 0 0 0 0 0 0 0 0 0 0 0 0 0 0 0 0 0 0 0 0 0 0 0 0 0 0 0 0 0 0 0 0 0 0 0 0 0 0 0 0 0 0 0 0 0 0 0 0 0 0 0 0 0 0 0 0 0 0 0 0 0 0 0 0 0 0 0 0 0 0 0 0 0 0 0 0 0 0 0 0 0 0 0 0 0 0 0 0 0 0 0 0 0 0 0 0 0 0 0 0 0 0 0 0 0 0 0 0 0 0 0 0 0 0 0 0 0 0 0 0 0 0 0 0 0 0 0 0 0 0 0 0 0 0 0 0 0 0 0 0 0 0 0 0 0 0 0 0 0 0 0 0 0 0 0 0 0 0 0 0 0 0 0 0 0 0 0 0 0 0 0 0 0 0 0 0 0 0 0 0 0 0 0 0 0 0 0 0 0 0 0 0 0 0 0 0 0 0 0 0 0 0 0 0 0 0 0 0 0 0 0 0 0 0 0 0 0 0 0 0 0 0 0 0 0 0 0 0 0 0 0 0 0 0 0 0 0 0 0 0 0 0 0 0 0 0 0 0 0 0 0 0 0 0 0 0 0 0 0 0 0 0 0 0 0 0 0 0 0 0 0 0 0 0 0 0 0 0 0 0 0 0 0 0 0 0 0 0 0 0 0 0 0 0 0 0 0 0 0 0 0 0 0 0 0 0 0 0 0 0 0 0 0 0 0 0 0 0 0 0 0 0 0 0 0 0 0 0 0 0 0 0 0 0 0 0 0 0 0 0 0 0 0 0 0 0 0 0 0 0 0 0 0 0 0 0 0 0 0 0 0 0 0 0 0 0 0 0 0 0 0 0 0 0 0 0 0 0 0 0 0 0 0 0 0 0 0 0 0 0 0 0 0 0 0 0 0 0 0 0 0 0 0 0 0 0 0 0 0 0 0 0 0 0 0 0 0 0 0 0 0 0 0 0 0 0 0 0 0 0 0 0 0 0 0 0 0 0 0 0 0 0 0 0 0 0 0 0 0 0 0 0 0 0 0 0 0 0 0 0 0 0 0 0 0 0 0 0 0 0 0 0 0 0 0 0 0 0 0 0 0 0 0 0 0 0 0 0 0 0 0 0 0 0 0 0 0 0 0 0 0 0 0 0 0 0 0 0 0 0 0 0 0 0 0 0 0 0 0 0 0 0 0 0 0 0 0 0 0 0 0 0 0 0 0 0 0 0 0 0 0 0 0 0 0 0 0 0 0 0 0 0 0 0 0 0 0 0 0 0 0 0 0 0 0 0 0 0 0 0 0 0 0 0 0 0 0 0 0 0 0 0 0 0 0 0 0 0 0 0 0 0 0 0 0 0 0 0 0 0 0 0 0 0 0 0 0 0 0 0 0 0 0 0 0 0 0 0 0 0 0 0 0 0 0 0 0 0 0 0 0 0 0 0 0 0 0 0 0 0 0 0 0 0 0 0 0 0 0 0 0 0 0 0 0 0 0 0 0 0 0 0 0 0 0 0 0 0 0 0 0 0 0 0 0 0 0 0 0 0 0 0 0 0 0 0 0 0 0 0 0 0 0 0 0 0 0 0 0 0 0 0 0 0 0 0 0 0 0 0 0 0 0 0 0 0 0 0 0 0 0 0 0 0 0 0 0 0 0 0 0 0 0 0 0 0 0 0 0 0 0 0 0 0 0 0 0 0 0 0 0 0 0 0 0 0 0 0 0 0 0 0 0 0 0 0 0 0 0 0 0 0 0 0 0 0 0 0 0 0 0 0 0 0 0 0 0 0 0 0 0 0 0 0 0 0 0 0 0 0 0 0 0 0 0 0 0 0 0 0 0 0 0 0 0 0 0 0 0 0 0 0 0 0 0 0 0 0 0 0 0 0 0 0 0 0 0 0 0 0 0 0 0 0 0 0 0 0 0 0 0 0 0 0 0 0 0 0 0 0 0 0 0 0 0 0 0 0 0 0 0 0 0 0 0 0 0 0 0 0 0 0 0 0 0 0 0 0 0 0 0 0 0 0 0 0 0 0 0 0 0 0 0 0 0 0 0 0 0 0 0 0 0 0 0 0 0 0 0 0 0 0 0 0 0 0 0 0 0 0 0 0 0 0 0 0 0 0 0 0 0 0 0 0 0 0 0 0 0 0 0 0 0 0 0 0 0 0 0 0 0 0 0 0 0 0 0 0 0 0 0 0 0 0 0 0 0 0 0 0 0 0 0 0 0 0 0 0 0 0 0 0 0 0 0 0 0 0 0 0 0 0 0 0 0 0 0 0 0 0 0 0 0 0 0 0 0 0 0 0 0 0 0 0 0 0 0 0 0 0 0 0 0 0 0 0 0 0 0 0 0 0 0 0 0 0 0 0 0 0 0 0 0 0 0 0 0 0 0 0 0 0 0 0 0 0 0 0 0 0 0 0 0 0 0 0 0 0 0 0 0 0 0 0 0 0 0 0 0 0 0 0 0 0 0 0 0 0 0 0 0 0 0 0 0 0 0 0 0 0 0 0 0 0 0 0 0 0 0 0 0 0 0 0 0 0 0 0 0 0 0 0 0 0 0 0 0 0 0 0 0 0 0 0 0 0 0 0 0 0 0 0 0 0 0 0 0 0 0 0 0 0 0 0 0 0 0 0 0 0 0 0 0 0 0 0 0 0 0 0 0 0 0 0 0 0 0 0 0 0 0 0 0 0 0 0 0 0 0 0 0 0 0 0 0 0 0 0 0 0 0 0 0 0 0 0 0 0 0 0 0 0 0 0 0 0 0 0 0 0 0 0 0 0 0 0 0 0 0 0 0 0 0 0 0 0 0 0 0 0 0 0 0 0 0 0 0 0 0 0 0 0 0 0 0 0 0 0 0 0 0 0 0 0 0 0 0 0 0 0 0 0 0 0 0 0 0 0 0 0 0 0 0 0 0 0 0 0 0 0 0 0 0 0 0 0 0 0 0 0 0 0 0 0 0 0 0 0 0 0 0 0 0 0 0 0 0 0 0 0 0 0 0 0 0 0 0 0 0 0 0 0 0 0 0 0 0 0 0 0 0 0 0 0 0 0 0 0 0 0 0 0 0 0 0 0 0 0 0 0 0 0 0 0 0 0 0 0 0 0 0 0 0 0 0 0 0 0 0 0 0 0 0 0 0 0 0 0 0 0 0 0 0 0 0 0 0 0 0 0 0 0 0 0 0 0 0 0 0 0 0 0 0 0 0 0 0 0 0 0 0 0 0 0 0 0 0 0 0 0 0 0 0 0 0 0 0 0 0 0 0 0 0 0 0 0 0 0 0 0 0 0 0 0 0 0 0 0 0 0 0 0 0 0 0 0 0 0 0 0 0 0 0 0 0 0 0 0 0 0 0 0 0 0 0 0 0 0 0 0 0 0 0 0 0 0 0 0 0 0 0 0 0 0 0 0 0 0 0 0 0 0 0
</DataArray>
<DataArray Name="CC" type="Float32" format="ascii" >
 0 0 0 0 0 0 0 0 0 0 0 0 0 0 0 0 0 0 0 0 0 0 0 0 0 0 0 0 0 0 0 0 0 0 0 0 0 0 0 0 0 0 0 0 0 0 0 0 0 0 0 0 0 0 0 0 0 0 0 0 0 0 0 0 0 0 0 0 0 0 0 0 0 0 0 0 0 0 0 0 0 0 0 0 0 0 0 0 0 0 0 0 0 0 0 0 0 0 0 0 0 0 0 0 0 0 0 0 0 0 0 0 0 0 0 0 0 0 0 0 0 0 0 0 0 0 0 0 0 0 0 0 0 0 0 0 0 0 0 0 0 0 0 0 0 0 0 0 0 0 0 0 0 0 0 0 0 0 0 0 0 0 0 0 0 0 0 0 0 0 0 0 0 0 0 0 0 0 0 0 0 0 0 0 0 0 0 0 0 0 0 0 0 0 0 0 0 0 0 0 0 0 0 0 0 0 0 0 0 0 0 0 0 0 0 0 0 0 0 0 0 0 0 0 0 0 0 0 0 0 0 0 0 0 0 0 0 0 0 0 0 0 0 0 0 0 0 0 0 0 0 0 0 0 0 0 0 0 0 0 0 0 0 0 0 0 0 0 0 0 0 0 0 0 0 0 0 0 0 0 0 0 0 0 0 0 0 0 0 0 0 0 0 0 0 0 0 0 0 0 0 0 0 0 0 0 0 0 0 0 0 0 0 0 0 0 0 0 0 0 0 0 0 0 0 0 0 0 0 0 0 0 0 0 0 0 0 0 0 0 0 0 0 0 0 0 0 0 0 0 0 0 0 0 0 0 0 0 0 0 0 0 0 0 0 0 0 0 0 0 0 0 0 0 0 0 0 0 0 0 0 0 0 0 0 0 0 0 0 0 0 0 0 0 0 0 0 0 0 0 0 0 0 0 0 0 0 0 0 0 0 0 0 0 0 0 0 0 0 0 0 0 0 0 0 0 0 0 0 0 0 0 0 0 0 0 0 0 0 0 0 0 0 0 0 0 0 0 0 0 0 0 0 0 0 0 0 0 0 0 0 0 0 0 0 0 0 0 0 0 0 0 0 0 0 0 0 0 0 0 0 0 0 0 0 0 0 0 0 0 0 0 0 0 0 0 0 0 0 0 0 0 0 0 0 0 0 0 0 0 0 0 0 0 0 0 0 0 0 0 0 0 0 0 0 0 0 0 0 0 0 0 0 0 0 0 0 0 0 0 0 0 0 0 0 0 0 0 0 0 0 0 0 0 0 0 0 0 0 0 0 0 0 0 0 0 0 0 0 0 0 0 0 0 0 0 0 0 0 0 0 0 0 0 0 0 0 0 0 0 0 0 0 0 0 0 0 0 0 0 0 0 0 0 0 0 0 0 0 0 0 0 0 0 0 0 0 0 0 0 0 0 0 0 0 0 0 0 0 0 0 0 0 0 0 0 0 0 0 0 0 0 0 0 0 0 0 0 0 0 0 0 0 0 0 0 0 0 0 0 0 0 0 0 0 0 0 0 0 0 0 0 0 0 0 0 0 0 0 0 0 0 0 0 0 0 0 0 0 0 0 0 0 0 0 0 0 0 0 0 0 0 0 0 0 0 0 0 0 0 0 0 0 0 0 0 0 0 0 0 0 0 0 0 0 0 0 0 0 0 0 0 0 0 0 0 0 0 0 0 0 0 0 0 0 0 0 0 0 0 0 0 0 0 0 0 0 0 0 0 0 0 0 0 0 0 0 0 0 0 0 0 0 0 0 0 0 0 0 0 0 0 0 0 0 0 0 0 0 0 0 0 0 0 0 0 0 0 0 0 0 0 0 0 0 0 0 0 0 0 0 0 0 0 0 0 0 0 0 0 0 0 0 0 0 0 0 0 0 0 0 0 0 0 0 0 0 0 0 0 0 0 0 0 0 0 0 0 0 0 0 0 0 0 0 0 0 0 0 0 0 0 0 0 0 0 0 0 0 0 0 0 0 0 0 0 0 0 0 0 0 0 0 0 0 0 0 0 0 0 0 0 0 0 0 0 0 0 0 0 0 0 0 0 0 0 0 0 0 0 0 0 0 0 0 0 0 0 0 0 0 0 0 0 0 0 0 0 0 0 0 0 0 0 0 0 0 0 0 0 0 0 0 0 0 0 0 0 0 0 0 0 0 0 0 0 0 0 0 0 0 0 0 0 0 0 0 0 0 0 0 0 0 0 0 0 0 0 0 0 0 0 0 0 0 0 0 0 0 0 0 0 0 0 0 0 0 0 0 0 0 0 0 0 0 0 0 0 0 0 0 0 0 0 0 0 0 0 0 0 0 0 0 0 0 0 0 0 0 0 0 0 0 0 0 0 0 0 0 0 0 0 0 0 0 0 0 0 0 0 0 0 0 0 0 0 0 0 0 0 0 0 0 0 0 0 0 0 0 0 0 0 0 0 0 0 0 0 0 0 0 0 0 0 0 0 0 0 0 0 0 0 0 0 0 0 0 0 0 0 0 0 0 0 0 0 0 0 0 0 0 0 0 0 0 0 0 0 0 0 0 0 0 0 0 0 0 0 0 0 0 0 0 0 0 0 0 0 0 0 0 0 0 0 0 0 0 0 0 0 0 0 0 0 0 0 0 0 0 0 0 0 0 0 0 0 0 0 0 0 0 0 0 0 0 0 0 0 0 0 0 0 0 0 0 0 0 0 0 0 0 0 0 0 0 0 0 0 0 0 0 0 0 0 0 0 0 0 0 0 0 0 0 0 0 0 0 0 0 0 0 0 0 0 0 0 0 0 0 0 0 0 0 0 0 0 0 0 0 0 0 0 0 0 0 0 0 0 0 0 0 0 0 0 0 0 0 0 0 0 0 0 0 0 0 0 0 0 0 0 0 0 0 0 0 0 0 0 0 0 0 0 0 0 0 0 0 0 0 0 0 0 0 0 0 0 0 0 0 0 0 0 0 0 0 0 0 0 0 0 0 0 0 0 0 0 0 0 0 0 0 0 0 0 0 0 0 0 0 0 0 0 0 0 0 0 0 0 0 0 0 0 0 0 0 0 0 0 0 0 0 0 0 0 0 0 0 0 0 0 0 0 0 0 0 0 0 0 0 0 0 0 0 0 0 0 0 0 0 0 0 0 0 0 0 0 0 0 0 0 0 0 0 0 0 0 0 0 0 0 0 0 0 0 0 0 0 0 0 0 0 0 0 0 0 0 0 0 0 0 0 0 0 0 0 0 0 0 0 0 0 0 0 0 0 0 0 0 0 0 0 0 0 0 0 0 0 0 0 0 0 0 0 0 0 0 0 0 0 0 0 0 0 0 0 0 0 0 0 0 0 0 0 0 0 0 0 0 0 0 0 0 0 0 0 0 0 0 0 0 0 0 0 0 0 0 0 0 0 0 0 0 0 0 0 0 0 0 0 0 0 0 0 0 0 0 0 0 0 0 0 0 0 0 0 0 0 0 0 0 0 0 0 0 0 0 0 0 0 0 0 0 0 0 0 0 0 0 0 0 0 0 0 0 0 0 0 0 0 0 0 0 0 0 0 0 0 0 0 0 0 0 0 0 0 0 0 0 0 0 0 0 0 0 0 0 0 0 0 0 0 0 0 0 0 0 0 0 0 0 0 0 0 0 0 0 0 0 0 0 0 0 0 0 0 0 0 0 0 0 0 0 0 0 0 0 0 0 0 0 0 0 0 0 0 0 0 0 0 0 0 0 0 0 0 0 0 0 0 0 0 0 0 0 0 0 0 0 0 0 0 0 0 0 0 0 0 0 0 0 0 0 0 0 0 0 0 0 0 0 0 0 0 0 0 0 0 0 0 0 0 0 0 0 0 0 0 0 0 0 0 0 0 0 0 0 0 0 0 0 0 0 0 0 0 0 0 0 0 0 0 0 0 0 0 0 0 0 0 0 0 0 0 0 0 0 0 0 0 0 0 0 0 0 0 0 0 0 0 0 0 0 0 0 0 0 0 0 0 0 0 0 0 0 0 0 0 0 0 0 0 0 0 0 0 0 0 0 0 0 0 0 0 0 0 0 0 0 0 0 0 0 0 0 0 0 0 0 0 0 0 0 0 0 0 0 0 0 0 0 0 0 0 0 0 0 0 0 0 0 0 0 0 0 0 0 0 0 0 0 0 0 0 0 0 0 0 0 0 0 0 0 0 0 0 0 0 0 0 0 0 0 0 0 0 0 0 0 0 0 0 0 0 0 0 0 0 0 0 0 0 0 0 0 0 0 0 0 0 0 0 0 0 0 0 0 0 0 0 0 0 0 0 0 0 0 0 0 0 0 0 0 0 0 0 0 0 0 0 0 0 0 0 0 0 0 0 0 0 0 0 0 0 0 0 0 0 0 0 0 0 0 0 0 0 0 0 0 0 0 0 0 0 0 0 0 0 0 0 0 0 0 0 0 0 0 0 0 0 0 0 0 0 0 0 0 0 0 0 0 0 0 0 0 0 0 0 0 0 0 0 0 0 0 0 0 0 0 0 0 0 0 0 0 0 0 0 0 0 0 0 0 0 0 0 0 0 0 0 0 0 0 0 0 0 0 0 0 0 0 0 0 0 0 0 0 0 0 0 0 0 0 0 0 0 0 0 0 0 0 0 0 0 0 0 0 0 0 0 0 0 0 0 0 0 0 0 0 0 0 0 0 0 0 0 0 0 0 0 0 0 0 0 0 0 0 0 0 0 0 0 0 0 0 0 0 0 0 0 0 0 0 0 0 0 0 0 0 0 0 0 0 0 0 0 0 0 0 0 0 0 0 0 0 0 0 0 0 0 0 0 0 0 0 0 0 0 0 0 0 0 0 0 0 0 0 0 0 0 0 0 0 0 0 0 0 0 0 0 0 0 0 0 0 0 0 0 0 0 0 0 0 0 0 0 0 0 0 0 0 0 0 0 0 0 0 0 0 0 0 0 0 0 0 0 0 0 0 0 0 0 0 0 0 0 0 0 0 0 0 0 0 0 0 0 0 0 0 0 0 0 0 0 0 0 0 0 0 0 0 0 0 0 0 0 0 0 0 0 0 0 0 0 0 0 0 0 0 0 0 0 0 0 0 0 0 0 0 0 0 0 0 0 0 0 0 0 0 0 0 0 0 0 0 0 0 0 0 0 0 0 0 0 0 0 0 0 0 0 0 0 0 0 0 0 0 0 0 0 0 0 0 0 0 0 0 0 0 0 0 0 0 0 0 0 0 0 0 0 0 0 0 0 0 0 0 0 0 0 0 0 0 0 0 0 0 0 0 0 0 0 0 0 0 0 0 0 0 0 0 0 0 0 0 0 0 0 0 0 0 0 0 0 0 0 0 0 0 0 0 0 0 0 0 0 0 0 0 0 0 0 0 0 0 0 0 0 0 0 0 0 0 0 0 0 0 0 0 0 0 0 0 0 0 0 0 0 0 0 0 0 0 0 0 0 0 0 0 0 0 0 0 0 0 0 0 0 0 0 0 0 0 0 0 0 0 0 0 0 0 0 0 0 0 0 0 0 0 0 0 0 0 0 0 0 0 0 0 0 0 0 0 0 0 0 0 0 0 0 0 0 0 0 0 0 0 0 0 0 0 0 0 0 0 0 0 0 0 0 0 0 0 0 0 0 0 0 0 0 0 0 0 0 0 0 0 0 0 0 0 0 0 0 0 0 0 0 0 0 0 0 0 0 0 0 0 0 0 0 0 0 0 0 0 0 0 0 0 0 0 0 0 0 0 0 0 0 0 0 0 0 0 0 0 0 0 0 0 0 0 0 0 0 0 0 0 0 0 0 0 0 0 0 0 0 0 0 0 0 0 0 0 0 0 0 0 0 0 0 0 0 0 0 0 0 0 0 0 0 0 0 0 0 0 0 0 0 0 0 0 0 0 0 0 0 0 0 0 0 0 0 0 0 0 0 0 0 0 0 0 0 0 0 0 0 0 0 0 0 0 0 0 0 0 0 0 0 0 0 0 0 0 0 0 0 0 0 0 0 0 0 0 0 0 0 0 0 0 0 0 0 0 0 0 0 0 0 0 0 0 0 0 0 0 0 0 0 0 0 0 0 0 0 0 0 0 0 0 0 0 0 0 0 0 0 0 0 0 0 0 0 0 0 0 0 0 0 0 0 0 0 0 0 0 0 0 0 0 0 0 0 0 0 0 0 0 0 0 0 0 0 0 0 0 0 0 0 0 0 0 0 0 0 0 0 0 0 0 0 0 0 0 0 0 0 0 0 0 0 0 0 0 0 0 0 0 0 0 0 0 0 0 0 0 0 0 0 0 0 0 0 0 0 0 0 0 0 0 0 0 0 0 0 0 0 0 0 0 0 0 0 0 0 0 0 0 0 0 0 0 0 0 0 0 0 0 0 0 0 0 0 0 0 0 0 0 0 0 0 0 0 0 0 0 0 0 0 0 0 0 0 0 0 0 0 0 0 0 0 0 0 0 0 0 0 0 0 0 0 0 0 0 0 0 0 0 0 0 0 0 0 0 0 0 0 0 0 0 0 0 0 0 0 0 0 0 0 0 0 0 0 0 0 0 0 0 0 0 0 0 0 0 0 0 0 0 0 0 0 0 0 0 0 0 0 0 0 0 0 0 0 0 0 0 0 0 0 0 0 0 0 0 0 0 0 0 0 0 0 0 0 0 0 0 0 0 0 0 0 0 0 0 0 0 0 0 0 0 0 0 0 0 0 0 0 0 0 0 0 0 0 0 0 0 0 0 0 0 0 0 0 0 0 0 0 0 0 0 0 0 0 0 0 0 0 0 0 0 0 0 0 0 0 0 0 0 0 0 0 0 0 0 0 0 0 0 0 0 0 0 0 0 0 0 0 0 0 0 0 0 0 0 0 0 0 0 0 0 0 0 0 0 0 0 0 0 0 0 0 0 0 0 0 0 0 0 0 0 0 0 0 0 0 0 0 0 0 0 0 0 0 0 0 0 0 0 0 0 0 0 0 0 0 0 0 0 0 0 0 0 0 0 0 0 0 0 0 0 0 0 0 0 0 0 0 0 0 0 0 0 0 0 0 0 0 0 0 0 0 0 0 0 0 0 0 0 0 0 0 0 0 0 0 0 0 0 0 0 0 0 0 0 0 0 0 0 0 0 0 0 0 0 0 0 0 0 0 0 0 0 0 0 0 0 0 0 0 0 0 0 0 0 0 0 0 0 0 0 0 0 0 0 0 0 0 0 0 0 0 0 0 0 0 0 0 0 0 0 0 0 0 0 0 0 0 0 0 0 0 0 0 0 0 0 0 0 0 0 0 0 0 0 0 0 0 0 0 0 0 0 0 0 0 0 0 0 0 0 0 0 0 0 0 0 0 0 0 0 0 0 0 0 0 0 0 0 0 0 0 0 0 0 0 0 0 0 0 0 0 0 0 0 0 0 0 0 0 0 0 0 0 0 0 0 0 0 0 0 0 0 0 0 0 0 0 0 0 0 0 0 0 0 0 0 0 0 0 0 0 0 0 0 0 0 0 0 0 0 0 0 0 0 0 0 0 0 0 0 0 0 0 0 0 0 0 0 0 0 0 0 0 0 0 0 0 0 0 0 0 0 0 0 0 0 0 0 0 0 0 0 0 0 0 0 0 0 0 0 0 0 0 0 0 0 0 0 0 0 0 0 0 0 0 0 0 0 0 0 0 0 0 0 0 0 0 0 0 0 0 0 0 0 0 0 0 0 0 0 0 0 0 0 0 0 0 0 0 0 0 0 0 0 0 0 0 0 0 0 0 0 0 0 0 0 0 0 0 0 0 0 0 0 0 0 0 0 0 0 0 0 0 0 0 0 0 0 0 0 0 0 0 0 0 0 0 0 0 0 0 0 0 0 0 0 0 0 0 0 0 0 0 0 0 0 0 0 0 0 0 0 0 0 0 0 0 0 0 0 0 0 0 0 0 0 0 0 0 0 0 0 0 0 0 0 0 0 0 0 0 0 0 0 0 0 0 0 0 0 0 0 0 0 0 0 0 0 0 0 0 0 0 0 0 0 0 0 0 0 0 0 0 0 0 0 0 0 0 0 0 0 0 0 0 0 0 0 0 0 0 0 0 0 0 0 0 0 0 0 0 0 0 0 0 0 0 0 0 0 0 0 0 0 0 0 0 0 0 0 0 0 0 0 0 0 0 0 0 0 0 0 0 0 0 0 0 0 0 0 0 0 0 0 0 0 0 0 0 0 0 0 0 0 0 0 0 0 0 0 0 0 0 0 0 0 0 0 0 0 0 0 0 0 0 0 0 0 0 0 0 0 0 0 0 0 0 0 0 0 0 0 0 0 0 0 0 0 0 0 0 0 0 0 0 0 0 0 0 0 0 0 0 0 0 0 0 0 0 0 0 0 0 0 0 0 0 0 0 0 0 0 0 0 0 0 0 0 0 0 0 0 0 0 0 0 0 0 0 0 0 0 0 0 0 0 0 0 0 0 0 0 0 0 0 0 0 0 0 0 0 0 0 0 0 0 0 0 0 0 0 0 0 0 0 0 0 0 0 0 0 0 0 0 0 0 0 0 0 0 0 0 0 0 0 0 0 0 0 0 0 0 0 0 0 0 0 0 0 0 0 0 0 0 0 0 0 0 0 0 0 0 0 0 0 0 0 0 0 0 0 0 0 0 0 0 0 0 0 0 0 0 0 0 0 0 0 0 0 0 0 0 0 0 0 0 0 0 0 0 0 0 0 0 0 0 0 0 0 0 0 0 0 0 0 0 0 0 0 0 0 0 0 0 0 0 0 0 0 0 0 0 0 0 0 0 0 0 0 0 0 0 0 0 0 0 0 0 0 0 0 0 0 0 0 0 0 0 0 0 0 0 0 0 0 0 0 0 0 0 0 0 0 0 0 0 0 0 0 0 0 0 0 0 0 0 0 0 0 0 0 0 0 0 0 0 0 0 0 0 0 0 0 0 0 0 0 0 0 0 0 0 0 0 0 0 0 0 0 0 0 0 0 0 0 0 0 0 0 0 0 0 0 0 0 0 0 0 0 0 0 0 0 0 0 0 0 0 0 0 0 0 0 0 0 0 0 0 0 0 0 0 0 0 0 0 0 0 0 0 0 0 0 0 0 0 0 0 0 0 0 0 0 0 0 0 0 0 0 0 0 0 0 0 0 0 0 0 0 0 0 0 0 0 0 0 0 0 0 0 0 0 0 0 0 0 0 0 0 0 0 0 0 0 0 0 0 0 0 0 0 0 0 0 0 0 0 0 0 0 0 0 0 0 0 0 0 0 0 0 0 0 0 0 0 0 0 0 0 0 0 0 0 0 0 0 0 0 0 0 0 0 0 0 0 0 0 0 0 0 0 0 0 0 0 0 0 0 0 0 0 0 0 0 0 0 0 0 0 0 0 0 0 0 0 0 0 0 0 0 0 0 0 0 0 0 0 0 0 0 0 0 0 0 0 0 0 0 0 0 0 0 0 0 0 0 0 0 0 0 0 0 0 0 0 0 0 0 0 0 0 0 0 0 0 0 0 0 0 0 0 0 0 0 0 0 0 0 0 0 0 0 0 0 0 0 0 0 0 0 0 0 0 0 0 0 0 0 0 0 0 0 0 0 0 0 0 0 0 0 0 0 0 0 0 0 0 0 0 0 0 0 0 0 0 0 0 0 0 0 0 0 0 0 0 0 0 0 0 0 0 0 0 0 0 0 0 0 0 0 0 0 0 0 0 0 0 0 0 0 0 0 0 0 0 0 0 0 0 0 0 0 0 0 0 0 0 0 0 0 0 0 0 0 0 0 0 0 0 0 0 0 0 0 0 0 0 0 0 0 0 0 0 0 0 0 0 0 0 0 0 0 0 0 0 0 0 0 0 0 0 0 0 0 0 0 0 0 0 0 0 0 0 0 0 0 0 0 0 0 0 0 0 0 0 0 0 0 0 0 0 0 0 0 0 0 0 0 0 0 0 0 0 0 0 0 0 0 0 0 0 0 0 0 0 0 0 0 0 0 0 0 0 0 0 0 0 0 0 0 0 0 0 0 0 0 0 0 0 0 0 0 0 0 0 0 0 0 0 0 0 0 0 0 0 0 0 0 0 0 0 0 0 0 0 0 0 0 0 0 0 0 0 0 0 0 0 0 0 0 0 0 0 0 0 0 0 0 0 0 0 0 0 0 0 0 0 0 0 0 0 0 0 0 0 0 0 0 0 0 0 0 0 0 0 0 0 0 0 0 0 0 0 0 0 0 0 0 0 0 0 0 0 0 0 0 0 0 0 0 0 0 0 0 0 0 0 0 0 0 0 0 0 0 0 0 0 0 0 0 0 0 0 0 0 0 0 0 0 0 0 0 0 0 0 0 0 0 0 0 0 0 0 0 0 0 0 0 0 0 0 0 0 0 0 0 0 0 0 0 0 0 0 0 0 0 0 0 0 0 0 0 0 0 0 0 0 0 0 0 0 0 0 0 0 0 0 0 0 0 0 0 0 0 0 0 0 0 0 0 0 0 0 0 0 0 0 0 0 0 0 0 0 0 0 0 0 0 0 0 0 0 0 0 0 0 0 0 0 0 0 0 0 0 0 0 0 0 0 0 0 0 0 0 0 0 0 0 0 0 0 0 0 0 0 0 0 0 0 0 0 0 0 0 0 0 0 0 0 0 0 0 0 0 0 0 0 0 0 0 0 0 0 0 0 0 0 0 0 0 0 0 0 0 0 0 0 0 0 0 0 0 0 0 0 0 0 0 0 0 0 0 0 0 0 0 0 0 0 0 0 0 0 0 0 0 0 0 0 0 0 0 0 0 0 0 0 0 0 0 0 0 0 0 0 0 0 0 0 0 0 0 0 0 0 0 0 0 0 0 0 0 0 0 0 0 0 0 0 0 0 0 0 0 0 0 0 0 0 0 0 0 0 0 0 0 0 0 0 0 0 0 0 0 0 0 0 0 0 0 0 0 0 0 0 0 0 0 0 0 0 0 0 0 0 0 0 0 0 0 0 0 0 0 0 0 0 0 0 0 0 0 0 0 0 0 0 0 0 0 0 0 0 0 0 0 0 0 0 0 0 0 0 0 0 0 0 0 0 0 0 0 0 0 0 0 0 0 0 0 0 0 0 0 0 0 0 0 0 0 0 0 0 0 0 0 0 0 0 0 0 0 0 0 0 0 0 0 0 0 0 0 0 0 0 0 0 0 0 0 0 0 0 0 0 0 0 0 0 0 0 0 0 0 0 0 0 0 0 0 0 0 0 0 0 0 0 0 0 0 0 0 0 0 0 0 0 0 0 0 0 0 0 0 0 0 0 0 0 0 0 0 0 0 0 0 0 0 0 0 0 0 0 0 0 0 0 0 0 0 0 0 0 0 0 0 0 0 0 0 0 0 0 0 0 0 0 0 0 0 0 0 0 0 0 0 0 0 0 0 0 0 0 0 0 0 0 0 0 0 0 0 0 0 0 0 0 0 0 0 0 0 0 0 0 0 0 0 0 0 0 0 0 0 0 0 0 0 0 0 0 0 0 0 0 0 0 0 0 0 0 0 0 0 0 0 0 0 0 0 0 0 0 0 0 0 0 0 0 0 0 0 0 0 0 0 0 0 0 0 0 0 0 0 0 0 0 0 0 0 0 0 0 0 0 0 0 0 0 0 0 0 0 0 0 0 0 0 0 0 0 0 0 0 0 0 0 0 0 0 0 0 0 0 0 0 0 0 0 0 0 0 0 0 0 0 0 0 0 0 0 0 0 0 0 0 0 0 0 0 0 0 0 0 0 0 0 0 0 0 0 0 0 0 0 0 0 0 0 0 0 0 0 0 0 0 0 0 0 0 0 0 0 0 0 0 0 0 0 0 0 0 0 0 0 0 0 0 0 0 0 0 0 0 0 0 0 0 0 0 0 0 0 0 0 0 0 0 0 0 0 0 0 0 0 0 0 0 0 0 0 0 0 0 0 0 0 0 0 0 0 0 0 0 0 0 0 0 0 0 0 0 0 0 0 0 0 0 0 0 0 0 0 0 0 0 0 0 0 0 0 0 0 0 0 0 0 0 0 0 0 0 0 0 0 0 0 0 0 0 0 0 0 0 0 0 0 0 0 0 0 0 0 0 0 0 0 0 0 0 0 0 0 0 0 0 0 0 0 0 0 0 0 0 0 0 0 0 0 0 0 0 0 0 0 0 0 0 0 0 0 0 0 0 0 0 0 0 0 0 0 0 0 0 0 0 0 0 0 0 0 0 0 0 0 0 0 0 0 0 0 0 0 0 0 0 0 0 0 0 0 0 0 0 0 0 0 0 0 0 0 0 0 0 0 0 0 0 0 0 0 0 0 0 0 0 0 0 0 0 0 0 0 0 0 0 0 0 0 0 0 0 0 0 0 0 0 0 0 0 0 0 0 0 0 0 0 0 0 0 0 0 0 0 0 0 0 0 0 0 0 0 0 0 0 0 0 0 0 0 0 0 0 0 0 0 0 0 0 0 0 0 0 0 0 0 0 0 0 0 0 0 0 0 0 0 0 0 0 0 0 0 0 0 0 0 0 0 0 0 0 0 0 0 0 0 0 0 0 0 0 0 0 0 0 0 0 0 0 0 0 0 0 0 0 0 0 0 0 0 0 0 0 0 0 0 0 0 0 0 0 0 0 0 0 0 0 0 0 0 0 0 0 0 0 0 0 0 0 0 0 0 0 0 0 0 0 0 0 0 0 0 0 0 0 0 0 0 0 0 0 0 0 0 0 0 0 0 0 0 0 0 0 0 0 0 0 0 0 0 0 0 0 0 0 0 0 0 0 0 0 0 0 0 0 0 0 0 0 0 0 0 0 0 0 0 0 0 0 0 0 0 0 0 0 0 0 0 0 0 0 0 0 0 0 0 0 0 0 0 0 0 0 0 0 0 0 0 0 0 0 0 0 0 0 0 0 0 0 0 0 0 0 0 0 0 0 0 0 0 0 0 0 0 0 0 0 0 0 0 0 0 0 0 0 0 0 0 0 0 0 0 0 0 0 0 0 0 0 0 0 0 0 0 0 0 0 0 0 0 0 0 0 0 0 0 0 0 0 0 0 0 0 0 0 0 0 0 0 0 0 0 0 0 0 0 0 0 0 0 0 0 0 0 0 0 0 0 0 0 0 0 0 0 0 0 0 0 0 0 0 0 0 0 0 0 0 0 0 0 0 0 0 0 0 0 0 0 0 0 0 0 0 0 0 0 0 0 0 0 0 0 0 0 0 0 0 0 0 0 0 0 0 0 0 0 0 0 0 0 0 0 0 0 0 0 0 0 0 0 0 0 0 0 0 0 0 0 0 0 0 0 0 0 0 0 0 0 0 0 0 0 0 0 0 0 0 0 0 0 0 0 0 0 0 0 0 0 0 0 0 0 0 0 0 0 0 0 0 0 0 0 0 0 0 0 0 0 0 0 0 0 0 0 0 0 0 0 0 0 0 0 0 0 0 0 0 0 0 0 0 0 0 0 0 0 0 0 0 0 0 0 0 0 0 0 0 0 0 0 0 0 0 0 0 0 0 0 0 0 0 0 0 0 0 0 0 0 0 0 0 0 0 0 0 0 0 0 0 0 0 0 0 0 0 0 0 0 0 0 0 0 0 0 0 0 0 0 0 0 0 0 0 0 0 0 0 0 0 0 0 0 0 0 0 0 0 0 0 0 0 0 0 0 0 0 0 0 0 0 0 0 0 0 0 0 0 0 0 0 0 0 0 0 0 0 0 0 0 0 0 0 0 0 0 0 0 0 0 0 0 0 0 0 0 0 0 0 0 0 0 0 0 0 0 0 0 0 0 0 0 0 0 0 0 0 0 0 0 0 0 0 0 0 0 0 0 0 0 0 0 0 0 0 0 0 0 0 0 0 0 0 0 0 0 0 0 0 0 0 0 0 0 0 0 0 0 0 0 0 0 0 0 0 0 0 0 0 0 0 0 0 0 0 0 0 0 0 0 0 0 0 0 0 0 0 0 0 0 0 0 0 0 0 0 0 0 0 0 0 0 0 0 0 0 0 0 0 0 0 0 0 0 0 0 0 0 0 0 0 0 0 0 0 0 0 0 0 0 0 0 0 0 0 0 0 0 0 0 0 0 0 0 0 0 0 0 0 0 0 0 0 0 0 0 0 0 0 0 0 0 0 0 0 0 0 0 0 0 0 0 0 0 0 0 0 0 0 0 0 0 0 0 0 0 0 0 0 0 0 0 0 0 0 0 0 0 0 0 0 0 0 0 0 0 0 0 0 0 0 0 0 0 0 0 0 0 0 0 0 0 0 0 0 0 0 0 0 0 0 0 0 0 0 0 0 0 0 0 0 0 0 0 0 0 0 0 0 0 0 0 0 0 0 0 0 0 0 0 0 0 0 0 0 0 0 0 0 0 0 0 0 0 0 0 0 0 0 0 0 0 0 0 0 0 0 0 0 0 0 0 0 0 0 0 0 0 0 0 0 0 0 0 0 0 0 0 0 0 0 0 0 0 0 0 0 0 0 0 0 0 0 0 0 0 0 0 0 0 0 0 0 0 0 0 0 0 0 0 0 0 0 0 0 0 0 0 0 0 0 0 0 0 0 0 0 0 0 0 0 0 0 0 0 0 0 0 0 0 0 0 0 0 0 0 0 0 0 0 0 0 0 0 0 0 0 0 0 0 0 0 0 0 0 0 0 0 0 0 0 0 0 0 0 0 0 0 0 0 0 0 0 0 0 0 0 0 0 0 0 0 0 0 0 0 0 0 0 0 0 0 0 0 0 0 0 0 0 0 0 0 0 0 0 0 0 0 0 0 0 0 0 0 0 0 0 0 0 0 0 0 0 0 0 0 0 0 0 0 0 0 0 0 0 0 0 0 0 0 0 0 0 0 0 0 0 0 0 0 0 0 0 0 0 0 0 0 0 0 0 0 0 0 0 0 0 0 0 0 0 0 0 0 0 0 0 0 0 0 0 0 0 0 0 0 0 0 0 0 0 0 0 0 0 0 0 0 0 0 0 0 0 0 0 0 0 0 0 0 0 0 0 0 0 0 0 0 0 0 0 0 0 0 0 0 0 0 0 0 0 0 0 0 0 0 0 0 0 0 0 0 0 0 0 0 0 0 0 0 0 0 0 0 0 0 0 0 0 0 0 0 0 0 0 0 0 0 0 0 0 0 0 0 0 0 0 0 0 0 0 0 0 0 0 0 0 0 0 0 0 0 0 0 0 0 0 0 0 0 0 0 0 0 0 0 0 0 0 0 0 0 0 0 0 0 0 0 0 0 0 0 0 0 0 0 0 0 0 0 0 0 0 0 0 0 0 0 0 0 0 0 0 0 0 0 0 0 0 0 0 0 0 0 0 0 0 0 0 0 0 0 0 0 0 0 0 0 0 0 0 0 0 0 0 0 0 0 0 0 0 0 0 0 0 0 0 0 0 0 0 0 0 0 0 0 0 0 0 0 0 0 0 0 0 0 0 0 0 0 0 0 0 0 0 0 0 0 0 0 0 0 0 0 0 0 0 0 0 0 0 0 0 0 0 0 0 0 0 0 0 0 0 0 0 0 0 0 0 0 0 0 0 0 0 0 0 0 0 0 0 0 0 0 0 0 0 0 0 0 0 0 0 0 0 0 0 0 0 0 0 0 0 0 0 0 0 0 0 0 0 0 0 0 0 0 0 0 0 0 0 0 0 0 0 0 0 0 0 0 0 0 0 0 0 0 0 0 0 0 0 0 0 0 0 0 0 0 0 0 0 0 0 0 0 0 0 0 0 0 0 0 0 0 0 0 0 0 0 0 0 0 0 0 0 0 0 0 0 0 0 0 0 0 0 0 0 0 0 0 0 0 0 0 0 0 0 0 0 0 0 0 0 0 0 0 0 0 0 0 0 0 0 0 0 0 0 0 0 0 0 0 0 0 0 0 0 0 0 0 0 0 0 0 0 0 0 0 0 0 0 0 0 0 0 0 0 0 0 0 0 0 0 0 0 0 0 0 0 0 0 0 0 0 0 0 0 0 0 0 0 0 0 0 0 0 0 0 0 0 0 0 0 0 0 0 0 0 0 0 0 0 0 0 0 0 0 0 0 0 0 0 0 0 0 0 0 0 0 0 0 0 0 0 0 0 0 0 0 0 0 0 0 0 0 0 0 0 0 0 0 0 0 0 0 0 0 0 0 0 0 0 0 0 0 0 0 0 0 0 0 0 0 0 0 0 0 0 0 0 0 0 0 0 0 0 0 0 0 0 0 0 0 0 0 0 0 0 0 0 0 0 0 0 0 0 0 0 0 0 0 0 0 0 0 0 0 0 0 0 0 0 0 0 0 0 0 0 0 0 0 0 0 0 0 0 0 0 0 0 0 0 0 0 0 0 0 0 0 0 0 0 0 0 0 0 0 0 0 0 0 0 0 0 0 0 0 0 0 0 0 0 0 0 0 0 0 0 0 0 0 0 0 0 0 0 0 0 0 0 0 0 0 0 0 0 0 0 0 0 0 0 0 0 0 0 0 0 0 0 0 0 0 0 0 0 0 0 0 0 0 0 0 0 0 0 0 0 0 0 0 0 0 0 0 0 0 0 0 0 0 0 0 0 0 0 0 0 0 0 0 0 0 0 0 0 0 0 0 0 0 0 0 0 0 0 0 0 0 0 0 0 0 0 0 0 0 0 0 0 0 0 0 0 0 0 0 0 0 0 0 0 0 0 0 0 0 0 0 0 0 0 0 0 0 0 0 0 0 0 0 0 0 0 0 0 0 0 0 0 0 0 0 0 0 0 0 0 0 0 0 0 0 0 0 0 0 0 0 0 0 0 0 0 0 0 0 0 0 0 0 0 0 0 0 0 0 0 0 0 0 0 0 0 0 0 0 0 0 0 0 0 0 0 0 0 0 0 0 0 0 0 0 0 0 0 0 0 0 0 0 0 0 0 0 0 0 0 0 0 0 0 0 0 0 0 0 0 0 0 0 0 0 0 0 0 0 0 0 0 0 0 0 0 0 0 0 0 0 0 0 0 0 0 0 0 0 0 0 0 0 0 0 0 0 0 0 0 0 0 0 0 0 0 0 0 0 0 0 0 0 0 0 0 0 0 0 0 0 0 0 0 0 0 0 0 0 0 0 0 0 0 0 0 0 0 0 0 0 0 0 0 0 0 0 0 0 0 0 0 0 0 0 0 0 0 0 0 0 0 0 0 0 0 0 0 0 0 0 0 0 0 0 0 0 0 0 0 0 0 0 0 0 0 0 0 0 0 0 0 0 0 0 0 0 0 0 0 0 0 0 0 0 0 0 0 0 0 0 0 0 0 0 0 0 0 0 0 0 0 0 0 0 0 0 0 0 0 0 0 0 0 0 0 0 0 0 0 0 0 0 0 0 0 0 0 0 0 0 0 0 0 0 0 0 0 0 0 0 0 0 0 0 0 0 0 0 0 0 0 0 0 0 0 0 0 0 0 0 0 0 0 0 0 0 0 0 0 0 0 0 0 0 0 0 0 0 0 0 0 0 0 0 0 0 0 0 0 0 0 0 0 0 0 0 0 0 0 0 0 0 0 0 0 0 0 0 0 0 0 0 0 0 0 0 0 0 0 0 0 0 0 0 0 0 0 0 0 0 0 0 0 0 0 0 0 0 0 0 0 0 0 0 0 0 0 0 0 0 0 0 0 0 0 0 0 0 0 0 0 0 0 0 0 0 0 0 0 0 0 0 0 0 0 0 0 0 0 0 0 0 0 0 0 0 0 0 0 0 0 0 0 0 0 0 0 0 0 0 0 0 0 0 0 0 0 0 0 0 0 0 0 0 0 0 0 0 0 0 0 0 0 0 0 0 0 0 0 0 0 0 0 0 0 0 0 0 0 0 0 0 0 0 0 0 0 0 0 0 0 0 0 0 0 0 0 0 0 0 0 0 0 0 0 0 0 0 0 0 0 0 0 0 0 0 0 0 0 0 0 0 0 0 0 0 0 0 0 0 0 0 0 0 0 0 0 0 0 0 0 0 0 0 0 0 0 0 0 0 0 0 0 0 0 0 0 0 0 0 0 0 0 0 0 0 0 0 0 0 0 0 0 0 0 0 0 0 0 0 0 0 0 0 0 0 0 0 0 0 0 0 0 0 0 0 0 0 0 0 0 0 0 0 0 0 0 0 0 0 0 0 0 0 0 0 0 0 0 0 0 0 0 0 0 0 0 0 0 0 0 0 0 0 0 0 0 0 0 0 0 0 0 0 0 0 0 0 0 0 0 0 0 0 0 0 0 0 0 0 0 0 0 0 0 0 0 0 0 0 0 0 0 0 0 0 0 0 0 0 0 0 0 0 0 0 0 0 0 0 0 0 0 0 0 0 0 0 0 0 0 0 0 0 0 0 0 0 0 0 0 0 0 0 0 0 0 0 0 0 0 0 0 0 0 0 0 0 0 0 0 0 0 0 0 0 0 0 0 0 0 0 0 0 0 0 0 0 0 0 0 0 0 0 0 0 0 0 0 0 0 0 0 0 0 0 0 0 0 0 0 0 0 0 0 0 0 0 0 0 0 0 0 0 0 0 0 0 0 0 0 0 0 0 0 0 0 0 0 0 0 0 0 0 0 0 0 0 0 0 0 0 0 0 0 0 0 0 0 0 0 0 0 0 0 0 0 0 0 0 0 0 0 0 0 0 0 0 0 0 0 0 0 0 0 0 0 0 0 0 0 0 0 0 0 0 0 0 0 0 0 0 0 0 0 0 0 0 0 0 0 0 0 0 0 0 0 0 0 0 0 0 0 0 0 0 0 0 0 0 0 0 0 0 0 0 0 0 0 0 0 0 0 0 0 0 0 0 0 0 0 0 0 0 0 0 0 0 0 0 0 0 0 0 0 0 0 0 0 0 0 0 0 0 0 0 0 0 0 0 0 0 0 0 0 0 0 0 0 0 0 0 0 0 0 0 0 0 0 0 0 0 0 0 0 0 0 0 0 0 0 0 0 0 0 0 0 0 0 0 0 0 0 0 0 0 0 0 0 0 0 0 0 0 0 0 0 0 0 0 0 0 0 0 0 0 0 0 0 0 0 0 0 0 0 0 0 0 0 0 0 0 0 0 0 0 0 0 0 0 0 0 0 0 0 0 0 0 0 0 0 0 0 0 0 0 0 0 0 0 0 0 0 0 0 0 0 0 0 0 0 0 0 0 0 0 0 0 0 0 0 0 0 0 0 0 0 0 0 0 0 0 0 0 0 0 0 0 0 0 0 0 0 0 0 0 0 0 0 0 0 0 0 0 0 0 0 0 0 0 0 0 0 0 0 0 0 0 0 0 0 0 0 0 0 0 0 0 0 0 0 0 0 0 0 0 0 0 0 0 0 0 0 0 0 0 0 0 0 0 0 0 0 0 0 0 0 0 0 0 0 0 0 0 0 0 0 0 0 0 0 0 0 0 0 0 0 0 0 0 0 0 0 0 0 0 0 0 0 0 0 0 0 0 0 0 0 0 0 0 0 0 0 0 0 0 0 0 0 0 0 0 0 0 0 0 0 0 0 0 0 0 0 0 0 0 0 0 0 0 0 0 0 0 0 0 0 0 0 0 0 0 0 0 0 0 0 0 0 0 0 0 0 0 0 0 0 0 0 0 0 0 0 0 0 0 0 0 0 0 0 0 0 0 0 0 0 0 0 0 0 0 0 0 0 0 0 0 0 0 0 0 0 0 0 0 0 0 0 0 0 0 0 0 0 0 0 0 0 0 0 0 0 0 0 0 0 0 0 0 0 0 0 0 0 0 0 0 0 0 0 0 0 0 0 0 0 0 0 0 0 0 0 0 0 0 0 0 0 0 0 0 0 0 0 0 0 0 0 0 0 0 0 0 0 0 0 0 0 0 0 0 0 0 0 0 0 0 0 0 0 0 0 0 0 0 0 0 0 0 0 0 0 0 0 0 0 0 0 0 0 0 0 0 0 0 0 0 0 0 0 0 0 0 0 0 0 0 0 0 0 0 0 0 0 0 0 0 0 0 0 0 0 0 0 0 0 0 0 0 0 0 0 0 0 0 0 0 0 0 0 0 0 0 0 0 0 0 0 0 0 0 0 0 0 0 0 0 0 0 0 0 0 0 0 0 0 0 0 0 0 0 0 0 0 0 0 0 0 0 0 0 0 0 0 0 0 0 0 0 0 0 0 0 0 0 0 0 0 0 0 0 0 0 0 0 0 0 0 0 0 0 0 0 0 0 0 0 0 0 0 0 0 0 0 0 0 0 0 0 0 0 0 0 0 0 0 0 0 0 0 0 0 0 0 0 0 0 0 0 0 0 0 0 0 0 0 0 0 0 0 0 0 0 0 0 0 0 0 0 0 0 0 0 0 0 0 0 0 0 0 0 0 0 0 0 0 0 0 0 0 0 0 0 0 0 0 0 0 0 0 0 0 0 0 0 0 0 0 0 0 0 0 0 0 0 0 0 0 0 0 0 0 0 0 0 0 0 0 0 0 0 0 0 0 0 0 0 0 0 0 0 0 0 0 0 0 0 0 0 0 0 0 0 0 0 0 0 0 0 0 0 0 0 0 0 0 0 0 0 0 0 0 0 0 0 0 0 0 0 0 0 0 0 0 0 0 0 0 0 0 0 0 0 0 0 0 0 0 0 0 0 0 0 0 0 0 0 0 0 0 0 0 0 0 0 0 0 0 0 0 0 0 0 0 0 0 0 0 0 0 0 0 0 0 0 0 0 0 0 0 0 0 0 0 0 0 0 0 0 0 0 0 0 0 0 0 0 0 0 0 0 0 0 0 0 0 0 0 0 0 0 0 0 0 0 0 0 0 0 0 0 0 0 0 0 0 0 0 0 0 0 0 0 0 0 0 0 0 0 0 0 0 0 0 0 0 0 0 0 0 0 0 0 0 0 0 0 0 0 0 0 0 0 0 0 0 0 0 0 0 0 0 0 0 0 0 0 0 0 0 0 0 0 0 0 0 0 0 0 0 0 0 0 0 0 0 0 0 0 0 0 0 0 0 0 0 0 0 0 0 0 0 0 0 0 0 0 0 0 0 0 0 0 0 0 0 0 0 0 0 0 0 0 0 0 0 0 0 0 0 0 0 0 0 0 0 0 0 0 0 0 0 0 0 0 0 0 0 0 0 0 0 0 0 0 0 0 0 0 0 0 0 0 0 0 0 0 0 0 0 0 0 0 0 0 0 0 0 0 0 0 0 0 0 0 0 0 0 0 0 0 0 0 0 0 0 0 0 0 0 0 0 0 0 0 0 0 0 0 0 0 0 0 0 0 0 0 0 0 0 0 0 0 0 0 0 0 0 0 0 0 0 0 0 0 0 0 0 0 0 0 0 0 0 0 0 0 0 0 0 0 0 0 0 0 0 0 0 0 0 0 0 0 0 0 0 0 0 0 0 0 0 0 0 0 0 0 0 0 0 0 0 0 0 0 0 0 0 0 0 0 0 0 0 0 0 0 0 0 0 0 0 0 0 0 0 0 0 0 0 0 0 0 0 0 0 0 0 0 0 0 0 0 0 0 0 0 0 0 0 0 0 0 0 0 0 0 0 0 0 0 0 0 0 0 0 0 0 0 0 0 0 0 0 0 0 0 0 0 0 0 0 0 0 0 0 0 0 0 0 0 0 0 0 0 0 0 0 0 0 0 0 0 0 0 0 0 0 0 0 0 0 0 0 0 0 0 0 0 0 0 0 0 0 0 0 0 0 0 0 0 0 0 0 0 0 0 0 0 0 0 0 0 0 0 0 0 0 0 0 0 0 0 0 0 0 0 0 0 0 0 0 0 0 0 0 0 0 0 0 0 0 0 0 0 0 0 0 0 0 0 0 0 0 0 0 0 0 0 0 0 0 0 0 0 0 0 0 0 0 0 0 0 0 0 0 0 0 0 0 0 0 0 0 0 0 0 0 0 0 0 0 0 0 0 0 0 0 0 0 0 0 0 0 0 0 0 0 0 0 0 0 0 0 0 0 0 0 0 0 0 0 0 0 0 0 0 0 0 0 0 0 0 0 0 0 0 0 0 0 0 0 0 0 0 0 0 0 0 0 0 0 0 0 0 0 0 0 0 0 0 0 0 0 0 0 0 0 0 0 0 0 0 0 0 0 0 0 0 0 0 0 0 0 0 0 0 0 0 0 0 0 0 0 0 0 0 0 0 0 0 0 0 0 0 0 0 0 0 0 0 0 0 0 0 0 0 0 0 0 0 0 0 0 0 0 0 0 0 0 0 0 0 0 0 0 0 0 0 0 0 0 0 0 0 0 0 0 0 0 0 0 0 0 0 0 0 0 0 0 0 0 0 0 0 0 0 0 0 0 0 0 0 0 0 0 0 0 0 0 0 0 0 0 0 0 0 0 0 0 0 0 0 0 0 0 0 0 0 0 0 0 0 0 0 0 0 0 0 0 0 0 0 0 0 0 0 0 0 0 0 0 0 0 0 0 0 0 0 0 0 0 0 0 0 0 0 0 0 0 0 0 0 0 0 0 0 0 0 0 0 0 0 0 0 0 0 0 0 0 0 0 0 0 0 0 0 0 0 0 0 0 0 0 0 0 0 0 0 0 0 0 0 0 0 0 0 0 0 0 0 0 0 0 0 0 0 0 0 0 0 0 0 0 0 0 0 0 0 0 0 0 0 0 0 0 0 0 0 0 0 0 0 0 0 0 0 0 0 0 0 0 0 0 0 0 0 0 0 0 0 0 0 0 0 0 0 0 0 0 0 0 0 0 0 0 0 0 0 0 0 0 0 0 0 0 0 0 0 0 0 0 0 0 0 0 0 0 0 0 0 0 0 0 0 0 0 0 0 0 0 0 0 0 0 0 0 0 0 0 0 0 0 0 0 0 0 0 0 0 0 0 0 0 0 0 0 0 0 0 0 0 0 0 0 0 0 0 0 0 0 0 0 0 0 0 0 0 0 0 0 0 0 0 0 0 0 0 0 0 0 0 0 0 0 0 0 0 0 0 0 0 0 0 0 0 0 0 0 0 0 0 0 0 0 0 0 0 0 0 0 0 0 0 0 0 0 0 0 0 0 0 0 0 0 0 0 0 0 0 0 0 0 0 0 0 0 0 0 0 0 0 0 0 0 0 0 0 0 0 0 0 0 0 0 0 0 0 0 0 0 0 0 0 0 0 0 0 0 0 0 0 0 0 0 0 0 0 0 0 0 0 0 0 0 0 0 0 0 0 0 0 0 0 0 0 0 0 0 0 0 0 0 0 0 0 0 0 0 0 0 0 0 0 0 0 0 0 0 0 0 0 0 0 0 0 0 0 0 0 0 0 0 0 0 0 0 0 0 0 0 0 0 0 0 0 0 0 0 0 0 0 0 0 0 0 0 0 0 0 0 0 0 0 0 0 0 0 0 0 0 0 0 0 0 0 0 0 0 0 0 0 0 0 0 0 0 0 0 0 0 0 0 0 0 0 0 0 0 0 0 0 0 0 0 0 0 0 0 0 0 0 0 0 0 0 0 0 0 0 0 0 0 0 0 0 0 0 0 0 0 0 0 0 0 0 0 0 0 0 0 0 0 0 0 0 0 0 0 0 0 0 0 0 0 0 0 0 0 0 0 0 0 0 0 0 0 0 0 0 0 0 0 0 0 0 0 0 0 0 0 0 0 0 0 0 0 0 0 0 0 0 0 0 0 0 0 0 0 0 0 0 0 0 0 0 0 0 0 0 0 0 0 0 0 0 0 0 0 0 0 0 0 0 0 0 0 0 0 0 0 0 0 0 0 0 0 0 0 0 0 0 0 0 0 0 0 0 0 0 0 0 0 0 0 0 0 0 0 0 0 0 0 0 0 0 0 0 0 0 0 0 0 0 0 0 0 0 0 0 0 0 0 0 0 0 0 0 0 0 0 0 0 0 0 0 0 0 0 0 0 0 0 0 0 0 0 0 0 0 0 0 0 0 0 0 0 0 0 0 0 0 0 0 0 0 0 0 0 0 0 0 0 0 0 0 0 0 0 0 0 0 0 0 0 0 0 0 0 0 0 0 0 0 0 0 0 0 0 0 0 0 0 0 0 0 0 0 0 0 0 0 0 0 0 0 0 0 0 0 0 0 0 0 0 0 0 0 0 0 0 0 0 0 0 0 0 0 0 0 0 0 0 0 0 0 0 0 0 0 0 0 0 0 0 0 0 0 0 0 0 0 0 0 0 0 0 0 0 0 0 0 0 0 0 0 0 0 0 0 0 0 0 0 0 0 0 0 0 0 0 0 0 0 0 0 0 0 0 0 0 0 0 0 0 0 0 0 0 0 0 0 0 0 0 0 0 0 0 0 0 0 0 0 0 0 0 0 0 0 0 0 0 0 0 0 0 0 0 0 0 0 0 0 0 0 0 0 0 0 0 0 0 0 0 0 0 0 0 0 0 0 0 0 0 0 0 0 0 0 0 0 0 0 0 0 0 0 0 0 0 0 0 0 0 0 0 0 0 0 0 0 0 0 0 0 0 0 0 0 0 0 0 0 0 0 0 0 0 0 0 0 0 0 0 0 0 0 0 0 0 0 0 0 0 0 0 0 0 0 0 0 0 0 0 0 0 0 0 0 0 0 0 0 0 0 0 0 0 0 0 0 0 0 0 0 0 0 0 0 0 0 0 0 0 0 0 0 0 0 0 0 0 0 0 0 0 0 0 0 0 0 0 0 0 0 0 0 0 0 0 0 0 0 0 0 0 0 0 0 0 0 0 0 0 0 0 0 0 0 0 0 0 0 0 0 0 0 0 0 0 0 0 0 0 0 0 0 0 0 0 0 0 0 0 0 0 0 0 0 0 0 0 0 0 0 0 0 0 0 0 0 0 0 0 0 0 0 0 0 0 0 0 0 0 0 0 0 0 0 0 0 0 0 0 0 0 0 0 0 0 0 0 0 0 0 0 0 0 0 0 0 0 0 0 0 0 0 0 0 0 0 0 0 0 0 0 0 0 0 0 0 0 0 0 0 0 0 0 0 0 0 0 0 0 0 0 0 0 0 0 0 0 0 0 0 0 0 0 0 0 0 0 0 0 0 0 0 0 0 0 0 0 0 0 0 0 0 0 0 0 0 0 0 0 0 0 0 0 0 0 0 0 0 0 0 0 0 0 0 0 0 0 0 0 0 0 0 0 0 0 0 0 0 0 0 0 0 0 0 0 0 0 0 0 0 0 0 0 0 0 0 0 0 0 0 0 0 0 0 0 0 0 0 0 0 0 0 0 0 0 0 0 0 0 0 0 0 0 0 0 0 0 0 0 0 0 0 0 0 0 0 0 0 0 0 0 0 0 0 0 0 0 0 0 0 0 0 0 0 0 0 0 0 0 0 0 0 0 0 0 0 0 0 0 0 0 0 0 0 0 0 0 0 0 0 0 0 0 0 0 0 0 0 0 0 0 0 0 0 0 0 0 0 0 0 0 0 0 0 0 0 0 0 0 0 0 0 0 0 0 0 0 0 0 0 0 0 0 0 0 0 0 0 0 0 0 0 0 0 0 0 0 0 0 0 0 0 0 0 0 0 0 0 0 0 0 0 0 0 0 0 0 0 0 0 0 0 0 0 0 0 0 0 0 0 0 0 0 0 0 0 0 0 0 0 0 0 0 0 0 0 0 0 0 0 0 0 0 0 0 0 0 0 0 0 0 0 0 0 0 0 0 0 0 0 0 0 0 0 0 0 0 0 0 0 0 0 0 0 0 0 0 0 0 0 0 0 0 0 0 0 0 0 0 0 0 0 0 0 0 0 0 0 0 0 0 0 0 0 0 0 0 0 0 0 0 0 0 0 0 0 0 0 0 0 0 0 0 0 0 0 0 0 0 0 0 0 0 0 0 0 0 0 0 0 0 0 0 0 0 0 0 0 0 0 0 0 0 0 0 0 0 0 0 0 0 0 0 0 0 0 0 0 0 0 0 0 0 0 0 0 0 0 0 0 0 0 0 0 0 0 0 0 0 0 0 0 0 0 0 0 0 0 0 0 0 0 0 0 0 0 0 0 0 0 0 0 0 0 0 0 0 0 0 0 0 0 0 0 0 0 0 0 0 0 0 0 0 0 0 0 0 0 0 0 0 0 0 0 0 0 0 0 0 0 0 0 0 0 0 0 0 0 0 0 0 0 0 0 0 0 0 0 0 0 0 0 0 0 0 0 0 0 0 0 0 0 0 0 0 0 0 0 0 0 0 0 0 0 0 0 0 0 0 0 0 0 0 0 0 0 0 0 0 0 0 0 0 0 0 0 0 0 0 0 0 0 0 0 0 0 0 0 0 0 0 0 0 0 0 0 0 0 0 0 0 0 0 0 0 0 0 0 0 0 0 0 0 0 0 0 0 0 0 0 0 0 0 0 0 0 0 0 0 0 0 0 0 0 0 0 0 0 0 0 0 0 0 0 0 0 0 0 0 0 0 0 0 0 0 0 0 0 0 0 0 0 0 0 0 0 0 0 0 0 0 0 0 0 0 0 0 0 0 0 0 0 0 0 0 0 0 0 0 0 0 0 0 0 0 0 0 0 0 0 0 0 0 0 0 0 0 0 0 0 0 0 0 0 0 0 0 0 0 0 0 0 0 0 0 0 0 0 0 0 0 0 0 0 0 0 0 0 0 0 0 0 0 0 0 0 0 0 0 0 0 0 0 0 0 0 0 0 0 0 0 0 0 0 0 0 0 0 0 0 0 0 0 0 0 0 0 0 0 0 0 0 0 0 0 0 0 0 0 0 0 0 0 0 0 0 0 0 0 0 0 0 0 0 0 0 0 0 0 0 0 0 0 0 0 0 0 0 0 0 0 0 0 0 0 0 0 0 0 0 0 0 0 0 0 0 0 0 0 0 0 0 0 0 0 0 0 0 0 0 0 0 0 0 0 0 0 0 0 0 0 0 0 0 0 0 0 0 0 0 0 0 0 0 0 0 0 0 0 0 0 0 0 0 0 0 0 0 0 0 0 0 0 0 0 0 0 0 0 0 0 0 0 0 0 0 0 0 0 0 0 0 0 0 0 0 0 0 0 0 0 0 0 0 0 0 0 0 0 0 0 0 0 0 0 0 0 0 0 0 0 0 0 0 0 0 0 0 0 0 0 0 0 0 0 0 0 0 0 0 0 0 0 0 0 0 0 0 0 0 0 0 0 0 0 0 0 0 0 0 0 0 0 0 0 0 0 0 0 0 0 0 0 0 0 0 0 0 0 0 0 0 0 0 0 0 0 0 0 0 0 0 0 0 0 0 0 0 0 0 0 0 0 0 0 0 0 0 0 0 0 0 0 0 0 0 0 0 0 0 0 0 0 0 0 0 0 0 0 0 0 0 0 0 0 0 0 0 0 0 0 0 0 0 0 0 0 0 0 0 0 0 0 0 0 0 0 0 0 0 0 0 0 0 0 0 0 0 0 0 0 0 0 0 0 0 0 0 0 0 0 0 0 0 0 0 0 0 0 0 0 0 0 0 0 0 0 0 0 0 0 0 0 0 0 0 0 0 0 0 0 0 0 0 0 0 0 0 0 0 0 0 0 0 0 0 0 0 0 0 0 0 0 0 0 0 0 0 0 0 0 0 0 0 0 0 0 0 0 0 0 0 0 0 0 0 0 0 0 0 0 0 0 0 0 0 0 0 0 0 0 0 0 0 0 0 0 0 0 0 0 0 0 0 0 0 0 0 0 0 0 0 0 0 0 0 0 0 0 0 0 0 0 0 0 0 0 0 0 0 0 0 0 0 0 0 0 0 0 0 0 0 0 0 0 0 0 0 0 0 0 0 0 0 0 0 0 0 0 0 0 0 0 0 0 0 0 0 0 0 0 0 0 0 0 0 0 0 0 0 0 0 0 0 0 0 0 0 0 0 0 0 0 0 0 0 0 0 0 0 0 0 0 0 0 0 0 0 0 0 0 0 0 0 0 0 0 0 0 0 0 0 0 0 0 0 0 0 0 0 0 0 0 0 0 0 0 0 0 0 0 0 0 0 0 0 0 0 0 0 0 0 0 0 0 0 0 0 0 0 0 0 0 0 0 0 0 0 0 0 0 0 0 0 0 0 0 0 0 0 0 0 0 0 0 0 0 0 0 0 0 0 0 0 0 0 0 0 0 0 0 0 0 0 0 0 0 0 0 0 0 0 0 0 0 0 0 0 0 0 0 0 0 0 0 0 0 0 0 0 0 0 0 0 0 0 0 0 0 0 0 0 0 0 0 0 0 0 0 0 0 0 0 0 0 0 0 0 0 0 0 0 0 0 0 0 0 0 0 0 0 0 0 0 0 0 0 0 0 0 0 0 0 0 0 0 0 0 0 0 0 0 0 0 0 0 0 0 0 0 0 0 0 0 0 0 0 0 0 0 0 0 0 0 0 0 0 0 0 0 0 0 0 0 0 0 0 0 0 0 0 0 0 0 0 0 0 0 0 0 0 0 0 0 0 0 0 0 0 0 0 0 0 0 0 0 0 0 0 0 0 0 0 0 0 0 0 0 0 0 0 0 0 0 0 0 0 0 0 0 0 0 0 0 0 0 0 0 0 0 0 0 0 0 0 0 0 0 0 0 0 0 0 0 0 0 0 0 0 0 0 0 0 0 0 0 0 0 0 0 0 0 0 0 0 0 0 0 0 0 0 0 0 0 0 0 0 0 0 0 0 0 0 0 0 0 0 0 0 0 0 0 0 0 0 0 0 0 0 0 0 0 0 0 0 0 0 0 0 0 0 0 0 0 0 0 0 0 0 0 0 0 0 0 0 0 0 0 0 0 0 0 0 0 0 0 0 0 0 0 0 0 0 0 0 0 0 0 0 0 0 0 0 0 0 0 0 0 0 0 0 0 0 0 0 0 0 0 0 0 0 0 0 0 0 0 0 0 0 0 0 0 0 0 0 0 0 0 0 0 0 0 0 0 0 0 0 0 0 0 0 0 0 0 0 0 0 0 0 0 0 0 0 0 0 0 0 0 0 0 0 0 0 0 0 0 0 0 0 0 0 0 0 0 0 0 0 0 0 0 0 0 0 0 0 0 0 0 0 0 0 0 0 0 0 0 0 0 0 0 0 0 0 0 0 0 0 0 0 0 0 0 0 0 0 0 0 0 0 0 0 0 0 0 0 0 0 0 0 0 0 0 0 0 0 0 0 0 0 0 0 0 0 0 0 0 0 0 0 0 0 0 0 0 0 0 0 0 0 0 0 0 0 0 0 0 0 0 0 0 0 0 0 0 0 0 0 0 0 0 0 0 0 0 0 0 0 0 0 0 0 0 0 0 0 0 0 0 0 0 0 0 0 0 0 0 0 0 0 0 0 0 0 0 0 0 0 0 0 0 0 0 0 0 0 0 0 0 0 0 0 0 0 0 0 0 0 0 0 0 0 0 0 0 0 0 0 0 0 0 0 0 0 0 0 0 0 0 0 0 0 0 0 0 0 0 0 0 0 0 0 0 0 0 0 0 0 0 0 0 0 0 0 0 0 0 0 0 0 0 0 0 0 0 0 0 0 0 0 0 0 0 0 0 0 0 0 0 0 0 0 0 0 0 0 0 0 0 0 0 0 0 0 0 0 0 0 0 0 0 0 0 0 0 0 0 0 0 0 0 0 0 0 0 0 0 0 0 0 0 0 0 0 0 0 0 0 0 0 0 0 0 0 0 0 0 0 0 0 0 0 0 0 0 0 0 0 0 0 0 0 0 0 0 0 0 0 0 0 0 0 0 0 0 0 0 0 0 0 0 0 0 0 0 0 0 0 0 0 0 0 0 0 0 0 0 0 0 0 0 0 0 0 0 0 0 0 0 0 0 0 0 0 0 0 0 0 0 0 0 0 0 0 0 0 0 0 0 0 0 0 0 0 0 0 0 0 0 0 0 0 0 0 0 0 0 0 0 0 0 0 0 0 0 0 0 0 0 0 0 0 0 0 0 0 0 0 0 0 0 0 0 0 0 0 0 0 0 0 0 0 0 0 0 0 0 0 0 0 0 0 0 0 0 0 0 0 0 0 0 0 0 0 0 0 0 0 0 0 0 0 0 0 0 0 0 0 0 0 0 0 0 0 0 0 0 0 0 0 0 0 0 0 0 0 0 0 0 0 0 0 0 0 0 0 0 0 0 0 0 0 0 0 0 0 0 0 0 0 0 0 0 0 0 0 0 0 0 0 0 0 0 0 0 0 0 0 0 0 0 0 0 0 0 0 0 0 0 0 0 0 0 0 0 0 0 0 0 0 0 0 0 0 0 0 0 0 0 0 0 0 0 0 0 0 0 0 0 0 0 0 0 0 0 0 0 0 0 0 0 0 0 0 0 0 0 0 0 0 0 0 0 0 0 0 0 0 0 0 0 0 0 0 0 0 0 0 0 0 0 0 0 0 0 0 0 0 0 0 0 0 0 0 0 0 0 0 0 0 0 0 0 0 0 0 0 0 0 0 0 0 0 0 0 0 0 0 0 0 0 0 0 0 0 0 0 0 0 0 0 0 0 0 0 0 0 0 0 0 0 0 0 0 0 0 0 0 0 0 0 0 0 0 0 0 0 0 0 0 0 0 0 0 0 0 0 0 0 0 0 0 0 0 0 0 0 0 0 0 0 0 0 0 0 0 0 0 0 0 0 0 0 0 0 0 0 0 0 0 0 0 0 0 0 0 0 0 0 0 0 0 0 0 0 0 0 0 0 0 0 0 0 0 0 0 0 0 0 0 0 0 0 0 0 0 0 0 0 0 0 0 0 0 0 0 0 0 0 0 0 0 0 0 0 0 0 0 0 0 0 0 0 0 0 0 0 0 0 0 0 0 0 0 0 0 0 0 0 0 0 0 0 0 0 0 0 0 0 0 0 0 0 0 0 0 0 0 0 0 0 0 0 0 0 0 0 0 0 0 0 0 0 0 0 0 0 0 0 0 0 0 0 0 0 0 0 0 0 0 0 0 0 0 0 0 0 0 0 0 0 0 0 0 0 0 0 0 0 0 0 0 0 0 0 0 0 0 0 0 0 0 0 0 0 0 0 0 0 0 0 0 0 0 0 0 0 0 0 0 0 0 0 0 0 0 0 0 0 0 0 0 0 0 0 0 0 0 0 0 0 0 0 0 0 0 0 0 0 0 0 0 0 0 0 0 0 0 0 0 0 0 0 0 0 0 0 0 0 0 0 0 0 0 0 0 0 0 0 0 0 0 0 0 0 0 0 0 0 0 0 0 0 0 0 0 0 0 0 0 0 0 0 0 0 0 0 0 0 0 0 0 0 0 0 0 0 0 0 0 0 0 0 0 0 0 0 0 0 0 0 0 0 0 0 0 0 0 0 0 0 0 0 0 0 0 0 0 0 0 0 0 0 0 0 0 0 0 0 0 0 0 0 0 0 0 0 0 0 0 0 0 0 0 0 0 0 0 0 0 0 0 0 0 0 0 0 0 0 0 0 0 0 0 0 0 0 0 0 0 0 0 0 0 0 0 0 0 0 0 0 0 0 0 0 0 0 0 0 0 0 0 0 0 0 0 0 0 0 0 0 0 0 0 0 0 0 0 0 0 0 0 0 0 0 0 0 0 0 0 0 0 0 0 0 0 0 0 0 0 0 0 0 0 0 0 0 0 0 0 0 0 0 0 0 0 0 0 0 0 0 0 0 0 0 0 0 0 0 0 0 0 0 0 0 0 0 0 0 0 0 0 0 0 0 0 0 0 0 0 0 0 0 0 0 0 0 0 0 0 0 0 0 0 0 0 0 0 0 0 0 0 0 0 0 0 0 0 0 0 0 0 0 0 0 0 0 0 0 0 0 0 0 0 0 0 0 0 0 0 0 0 0 0 0 0 0 0 0 0 0 0 0 0 0 0 0 0 0 0 0 0 0 0 0 0 0 0 0 0 0 0 0 0 0 0 0 0 0 0 0 0 0 0 0 0 0 0 0 0 0 0 0 0 0 0 0 0 0 0 0 0 0 0 0 0 0 0 0 0 0 0 0 0 0 0 0 0 0 0 0 0 0 0 0 0 0 0 0 0 0 0 0 0 0 0 0 0 0 0 0 0 0 0 0 0 0 0 0 0 0 0 0 0 0 0 0 0 0 0 0 0 0 0 0 0 0 0 0 0 0 0 0 0 0 0 0 0 0 0 0 0 0 0 0 0 0 0 0 0 0 0 0 0 0 0 0 0 0 0 0 0 0 0 0 0 0 0 0 0 0 0 0 0 0 0 0 0 0 0 0 0 0 0 0 0 0 0 0 0 0 0 0 0 0 0 0 0 0 0 0 0 0 0 0 0 0 0 0 0 0 0 0 0 0 0 0 0 0 0 0 0 0 0 0 0 0 0 0 0 0 0 0 0 0 0 0 0 0 0 0 0 0 0 0 0 0 0 0 0 0 0 0 0 0 0 0 0 0 0 0 0 0 0 0 0 0 0 0 0 0 0 0 0 0 0 0 0 0 0 0 0 0 0 0 0 0 0 0 0 0 0 0 0 0 0 0 0 0 0 0 0 0 0 0 0 0 0 0 0 0 0 0 0 0 0 0 0 0 0 0 0 0 0 0 0 0 0 0 0 0 0 0 0 0 0 0 0 0 0 0 0 0 0 0 0 0 0 0 0 0 0 0 0 0 0 0 0 0 0 0 0 0 0 0 0 0 0 0 0 0 0 0 0 0 0 0 0 0 0 0 0 0 0 0 0 0 0 0 0 0 0 0 0 0 0 0 0 0 0 0 0 0 0 0 0 0 0 0 0 0 0 0 0 0 0 0 0 0 0 0 0 0 0 0 0 0 0 0 0 0 0 0 0 0 0 0 0 0 0 0 0 0 0 0 0 0 0 0 0 0 0 0 0 0 0 0 0 0 0 0 0 0 0 0 0 0 0 0 0 0 0 0 0 0 0 0 0 0 0 0 0 0 0 0 0 0 0 0 0 0 0 0 0 0 0 0 0 0 0 0 0 0 0 0 0 0 0 0 0 0 0 0 0 0 0 0 0 0 0 0 0 0 0 0 0 0 0 0 0 0 0 0 0 0 0 0 0 0 0 0 0 0 0 0 0 0 0 0 0 0 0 0 0 0 0 0 0 0 0 0 0 0 0 0 0 0 0 0 0 0 0 0 0 0 0 0 0 0 0 0 0 0 0 0 0 0 0 0 0 0 0 0 0 0 0 0 0 0 0 0 0 0 0 0 0 0 0 0 0 0 0 0 0 0 0 0 0 0 0 0 0 0 0 0 0 0 0 0 0 0 0 0 0 0 0 0 0 0 0 0 0 0 0 0 0 0 0 0 0 0 0 0 0 0 0 0 0 0 0 0 0 0 0 0 0 0 0 0 0 0 0 0 0 0 0 0 0 0 0 0 0 0 0 0 0 0 0 0 0 0 0 0 0 0 0 0 0 0 0 0 0 0 0 0 0 0 0 0 0 0 0 0 0 0 0 0 0 0 0 0 0 0 0 0 0 0 0 0 0 0 0 0 0 0 0 0 0 0 0 0 0 0 0 0 0 0 0 0 0 0 0 0 0 0 0 0 0
</DataArray>

      </CellData>
    </Piece>
  </UnstructuredGrid>
</VTKFile>